 vasp.4.6.28 25Jul05 complex
 executed on             LinuxIFC date 2017.01.06  05:41:12

 INCAR:
 POTCAR:   PAW_PBE Ag 06Sep2000
 POTCAR:   PAW_PBE Ag 06Sep2000
   VRHFIN =Ag : s1 d10

   TITEL  = PAW_PBE Ag 06Sep2000
   POMASS =  107.868; ZVAL   =   11.000    mass and valenz
   ENMAX  =  249.846; ENMIN  =  187.385 eV
   QCUT   =   -4.285; QGAM   =    8.570    optimization parameters

   Description
     l     E      TYP  RCUT    TYP  RCUT
     2   .000     23  2.400
     2   .000     23  2.400
     0   .000     23  2.400
     0   .000     23  2.400
     1  -.200     23  2.400
     1  1.500     23  2.400
     3   .000      7   .000

 PAW_PBE Ag 06Sep2000                   :

 POSCAR: Ag
  positions in direct lattice
  velocities in cartesian coordinates

 ion  position               nearest neighbor table
   1  0.000  0.000  0.000-   2 3.00   3 3.00   4 3.00   3 3.00   4 3.00   2 3.00   4 3.00   4 3.00
                             2 3.00   3 3.00   3 3.00   2 3.00
   2  0.500  0.500  0.000-   1 3.00   3 3.00   4 3.00   3 3.00   4 3.00   1 3.00   3 3.00   3 3.00
                             1 3.00   4 3.00   4 3.00   1 3.00
   3  0.500  0.000  0.500-   1 3.00   2 3.00   4 3.00   1 3.00   2 3.00   2 3.00   4 3.00   2 3.00
                             1 3.00   4 3.00   1 3.00   4 3.00
   4  0.000  0.500  0.500-   1 3.00   2 3.00   3 3.00   1 3.00   2 3.00   1 3.00   3 3.00   1 3.00
                             2 3.00   3 3.00   2 3.00   3 3.00

  LATTYP: Found a simple cubic cell.
 ALAT       =     4.2464892772

  Lattice vectors:

 A1 = (   4.2464892772,   0.0000000000,   0.0000000000)
 A2 = (   0.0000000000,   4.2464892772,   0.0000000000)
 A3 = (   0.0000000000,   0.0000000000,   4.2464892772)
 Subroutine PRICEL returns following result:

  LATTYP: Found a face centered cubic cell.
 ALAT       =     4.2464892772

  Lattice vectors:

 A1 = (   2.1232446386,   2.1232446386,   0.0000000000)
 A2 = (   2.1232446386,   0.0000000000,  -2.1232446386)
 A3 = (   0.0000000000,   2.1232446386,  -2.1232446386)

   4 primitive cells build up your supercell.

Analysis of symmetry for initial positions (statically):

 Routine SETGRP: Setting up the symmetry group for a
 simple cubic supercell.

 Subroutine GETGRP returns: Found 48 space group operations
 (whereof 48 operations were pure point group operations)
 out of a pool of 48 trial point group operations.

The static configuration has the point symmetry O_h .

Analysis of symmetry for dynamics (positions and initial velocities):

 Subroutine DYNSYM returns: Found 48 space group operations
 (whereof 48 operations were pure point group operations)
 out of a pool of 48 trial space group operations
 (whereof 48 operations were pure point group operations)
 and found also     4 'primitive' translations

The dynamic configuration has the point symmetry O_h .

 KPOINTS: Automatic mesh

Automatic generation of k-mesh.

 Subroutine IBZKPT returns following result:

 Found     84 irreducible k-points:

 Following reciprocal coordinates:
            Coordinates               Weight
  0.000000  0.000000  0.000000      1.000000
  0.083333  0.000000  0.000000      6.000000
  0.166667  0.000000  0.000000      6.000000
  0.250000  0.000000  0.000000      6.000000
  0.333333  0.000000  0.000000      6.000000
  0.416667  0.000000  0.000000      6.000000
  0.500000  0.000000  0.000000      3.000000
  0.083333  0.083333  0.000000     12.000000
  0.166667  0.083333  0.000000     24.000000
  0.250000  0.083333  0.000000     24.000000
  0.333333  0.083333  0.000000     24.000000
  0.416667  0.083333  0.000000     24.000000
  0.500000  0.083333  0.000000     12.000000
  0.166667  0.166667  0.000000     12.000000
  0.250000  0.166667  0.000000     24.000000
  0.333333  0.166667  0.000000     24.000000
  0.416667  0.166667  0.000000     24.000000
  0.500000  0.166667  0.000000     12.000000
  0.250000  0.250000  0.000000     12.000000
  0.333333  0.250000  0.000000     24.000000
  0.416667  0.250000  0.000000     24.000000
  0.500000  0.250000  0.000000     12.000000
  0.333333  0.333333  0.000000     12.000000
  0.416667  0.333333  0.000000     24.000000
  0.500000  0.333333  0.000000     12.000000
  0.416667  0.416667  0.000000     12.000000
  0.500000  0.416667  0.000000     12.000000
  0.500000  0.500000  0.000000      3.000000
  0.083333  0.083333  0.083333      8.000000
  0.166667  0.083333  0.083333     24.000000
  0.250000  0.083333  0.083333     24.000000
  0.333333  0.083333  0.083333     24.000000
  0.416667  0.083333  0.083333     24.000000
  0.500000  0.083333  0.083333     12.000000
  0.166667  0.166667  0.083333     24.000000
  0.250000  0.166667  0.083333     48.000000
  0.333333  0.166667  0.083333     48.000000
  0.416667  0.166667  0.083333     48.000000
  0.500000  0.166667  0.083333     24.000000
  0.250000  0.250000  0.083333     24.000000
  0.333333  0.250000  0.083333     48.000000
  0.416667  0.250000  0.083333     48.000000
  0.500000  0.250000  0.083333     24.000000
  0.333333  0.333333  0.083333     24.000000
  0.416667  0.333333  0.083333     48.000000
  0.500000  0.333333  0.083333     24.000000
  0.416667  0.416667  0.083333     24.000000
  0.500000  0.416667  0.083333     24.000000
  0.500000  0.500000  0.083333      6.000000
  0.166667  0.166667  0.166667      8.000000
  0.250000  0.166667  0.166667     24.000000
  0.333333  0.166667  0.166667     24.000000
  0.416667  0.166667  0.166667     24.000000
  0.500000  0.166667  0.166667     12.000000
  0.250000  0.250000  0.166667     24.000000
  0.333333  0.250000  0.166667     48.000000
  0.416667  0.250000  0.166667     48.000000
  0.500000  0.250000  0.166667     24.000000
  0.333333  0.333333  0.166667     24.000000
  0.416667  0.333333  0.166667     48.000000
[...]
  0.416667  0.333333  0.250000     48.000000
  0.500000  0.333333  0.250000     24.000000
  0.416667  0.416667  0.250000     24.000000
  0.500000  0.416667  0.250000     24.000000
  0.500000  0.500000  0.250000      6.000000
  0.333333  0.333333  0.333333      8.000000
  0.416667  0.333333  0.333333     24.000000
  0.500000  0.333333  0.333333     12.000000
  0.416667  0.416667  0.333333     24.000000
  0.500000  0.416667  0.333333     24.000000
  0.500000  0.500000  0.333333      6.000000
  0.416667  0.416667  0.416667      8.000000
  0.500000  0.416667  0.416667     12.000000
  0.500000  0.500000  0.416667      6.000000
  0.500000  0.500000  0.500000      1.000000

 Following cartesian coordinates:
            Coordinates               Weight
  0.000000  0.000000  0.000000      1.000000
  0.020017  0.000000  0.000000      6.000000
  0.040033  0.000000  0.000000      6.000000
  0.060050  0.000000  0.000000      6.000000
  0.080066  0.000000  0.000000      6.000000
  0.100083  0.000000  0.000000      6.000000
  0.120099  0.000000  0.000000      3.000000
  0.020017  0.020017  0.000000     12.000000
  0.040033  0.020017  0.000000     24.000000
  0.060050  0.020017  0.000000     24.000000
  0.080066  0.020017  0.000000     24.000000
  0.100083  0.020017  0.000000     24.000000
  0.120099  0.020017  0.000000     12.000000
  0.040033  0.040033  0.000000     12.000000
  0.060050  0.040033  0.000000     24.000000
  0.080066  0.040033  0.000000     24.000000
  0.100083  0.040033  0.000000     24.000000
  0.120099  0.040033  0.000000     12.000000
  0.060050  0.060050  0.000000     12.000000
  0.080066  0.060050  0.000000     24.000000
  0.100083  0.060050  0.000000     24.000000
  0.120099  0.060050  0.000000     12.000000
  0.080066  0.080066  0.000000     12.000000
  0.100083  0.080066  0.000000     24.000000
  0.120099  0.080066  0.000000     12.000000
  0.100083  0.100083  0.000000     12.000000
  0.120099  0.100083  0.000000     12.000000
  0.120099  0.120099  0.000000      3.000000
  0.020017  0.020017  0.020017      8.000000
  0.040033  0.020017  0.020017     24.000000
  0.060050  0.020017  0.020017     24.000000
  0.080066  0.020017  0.020017     24.000000
  0.100083  0.020017  0.020017     24.000000
  0.120099  0.020017  0.020017     12.000000
  0.040033  0.040033  0.020017     24.000000
  0.060050  0.040033  0.020017     48.000000
  0.080066  0.040033  0.020017     48.000000
  0.100083  0.040033  0.020017     48.000000
  0.120099  0.040033  0.020017     24.000000
  0.060050  0.060050  0.020017     24.000000
  0.080066  0.060050  0.020017     48.000000
  0.100083  0.060050  0.020017     48.000000
  0.120099  0.060050  0.020017     24.000000
  0.080066  0.080066  0.020017     24.000000
  0.100083  0.080066  0.020017     48.000000
  0.120099  0.080066  0.020017     24.000000
  0.100083  0.100083  0.020017     24.000000
  0.120099  0.100083  0.020017     24.000000
  0.120099  0.120099  0.020017      6.000000
  0.040033  0.040033  0.040033      8.000000
  0.060050  0.040033  0.040033     24.000000
  0.080066  0.040033  0.040033     24.000000
  0.100083  0.040033  0.040033     24.000000
  0.120099  0.040033  0.040033     12.000000
  0.060050  0.060050  0.040033     24.000000
  0.080066  0.060050  0.040033     48.000000
  0.100083  0.060050  0.040033     48.000000
  0.120099  0.060050  0.040033     24.000000
  0.080066  0.080066  0.040033     24.000000
  0.100083  0.080066  0.040033     48.000000
[...]
  0.100083  0.080066  0.060050     48.000000
  0.120099  0.080066  0.060050     24.000000
  0.100083  0.100083  0.060050     24.000000
  0.120099  0.100083  0.060050     24.000000
  0.120099  0.120099  0.060050      6.000000
  0.080066  0.080066  0.080066      8.000000
  0.100083  0.080066  0.080066     24.000000
  0.120099  0.080066  0.080066     12.000000
  0.100083  0.100083  0.080066     24.000000
  0.120099  0.100083  0.080066     24.000000
  0.120099  0.120099  0.080066      6.000000
  0.100083  0.100083  0.100083      8.000000
  0.120099  0.100083  0.100083     12.000000
  0.120099  0.120099  0.100083      6.000000
  0.120099  0.120099  0.120099      1.000000

 I would recommend the setting:
   dimension x,y,z NGX =    38 NGY =   38 NGZ =   38
 SYSTEM =  unknown system
 POSCAR =  Ag

 Startparameter for this run:
   NWRITE =      2    write-flag & timer
   PREC   = accura    medium, high low
   ISTART =      0    job   : 0-new  1-cont  2-samecut
   ICHARG =      2    charge: 1-file 2-atom 10-const
   ISPIN  =      1    spin polarized calculation?
   LNONCOLLINEAR =      F non collinear calculations
   LSORBIT =      F    spin-orbit coupling
   INIWAV =      1    electr: 0-lowe 1-rand  2-diag
   LASPH  =      F    aspherical Exc in radial PAW
   METAGGA=      F    non-selfconsistent MetaGGA calc.

 Electronic Relaxation 1
   ENCUT  =  750.0 eV  55.12 Ry    7.42 a.u.   9.48  9.48  9.48*2*pi/ulx,y,z
   ENINI  =  750.0     initial cutoff
   ENAUG  =  412.5 eV  augmentation charge cutoff
   NELM   =     60;   NELMIN=  2; NELMDL=  0     # of ELM steps
   EDIFF  = 0.1E-07   stopping-criterion for ELM
   LREAL  =      F    real-space projection
   LCOMPAT=      F    compatible to vasp.4.4
   LREAL_COMPAT= F    compatible to vasp.4.5.1-3
   GGA_COMPAT  = T    GGA compatible to vasp.4.4-vasp.4.6
   LMAXPAW     = -100 max onsite density
   LMAXMIX     =    2 max onsite mixed and CHGCAR
[...]
   0.25000000  0.25000000  0.00000000       0.007
   0.33333333  0.25000000  0.00000000       0.014
   0.41666667  0.25000000  0.00000000       0.014
   0.50000000  0.25000000  0.00000000       0.007
   0.33333333  0.33333333  0.00000000       0.007
   0.41666667  0.33333333  0.00000000       0.014
   0.50000000  0.33333333  0.00000000       0.007
   0.41666667  0.41666667  0.00000000       0.007
   0.50000000  0.41666667  0.00000000       0.007
   0.50000000  0.50000000  0.00000000       0.002
   0.08333333  0.08333333  0.08333333       0.005
   0.16666667  0.08333333  0.08333333       0.014
   0.25000000  0.08333333  0.08333333       0.014
   0.33333333  0.08333333  0.08333333       0.014
   0.41666667  0.08333333  0.08333333       0.014
   0.50000000  0.08333333  0.08333333       0.007
   0.16666667  0.16666667  0.08333333       0.014
   0.25000000  0.16666667  0.08333333       0.028
   0.33333333  0.16666667  0.08333333       0.028
   0.41666667  0.16666667  0.08333333       0.028
   0.50000000  0.16666667  0.08333333       0.014
   0.25000000  0.25000000  0.08333333       0.014
   0.33333333  0.25000000  0.08333333       0.028
   0.41666667  0.25000000  0.08333333       0.028
   0.50000000  0.25000000  0.08333333       0.014
   0.33333333  0.33333333  0.08333333       0.014
   0.41666667  0.33333333  0.08333333       0.028
   0.50000000  0.33333333  0.08333333       0.014
   0.41666667  0.41666667  0.08333333       0.014
   0.50000000  0.41666667  0.08333333       0.014
   0.50000000  0.50000000  0.08333333       0.003
   0.16666667  0.16666667  0.16666667       0.005
   0.25000000  0.16666667  0.16666667       0.014
   0.33333333  0.16666667  0.16666667       0.014
   0.41666667  0.16666667  0.16666667       0.014
   0.50000000  0.16666667  0.16666667       0.007
   0.25000000  0.25000000  0.16666667       0.014
   0.33333333  0.25000000  0.16666667       0.028
   0.41666667  0.25000000  0.16666667       0.028
   0.50000000  0.25000000  0.16666667       0.014
   0.33333333  0.33333333  0.16666667       0.014
   0.41666667  0.33333333  0.16666667       0.028
[...]
   0.41666667  0.33333333  0.25000000       0.028
   0.50000000  0.33333333  0.25000000       0.014
   0.41666667  0.41666667  0.25000000       0.014
   0.50000000  0.41666667  0.25000000       0.014
   0.50000000  0.50000000  0.25000000       0.003
   0.33333333  0.33333333  0.33333333       0.005
   0.41666667  0.33333333  0.33333333       0.014
   0.50000000  0.33333333  0.33333333       0.007
   0.41666667  0.41666667  0.33333333       0.014
   0.50000000  0.41666667  0.33333333       0.014
   0.50000000  0.50000000  0.33333333       0.003
   0.41666667  0.41666667  0.41666667       0.005
   0.50000000  0.41666667  0.41666667       0.007
   0.50000000  0.50000000  0.41666667       0.003
   0.50000000  0.50000000  0.50000000       0.001

 position of ions in fractional coordinates (direct lattice)
   0.00000000  0.00000000  0.00000000
   0.50000000  0.50000000  0.00000000
   0.50000000  0.00000000  0.50000000
   0.00000000  0.50000000  0.50000000

 position of ions in cartesian coordinates  (Angst):
   0.00000000  0.00000000  0.00000000
   2.12324464  2.12324464  0.00000000
   2.12324464  0.00000000  2.12324464
   0.00000000  2.12324464  2.12324464

 k-point  1 :  0.00000.00000.0000  plane waves:   3575
 k-point  2 :  0.08330.00000.0000  plane waves:   3607
 k-point  3 :  0.16670.00000.0000  plane waves:   3579
 k-point  4 :  0.25000.00000.0000  plane waves:   3575
 k-point  5 :  0.33330.00000.0000  plane waves:   3567
 k-point  6 :  0.41670.00000.0000  plane waves:   3555
 k-point  7 :  0.50000.00000.0000  plane waves:   3546
 k-point  8 :  0.08330.08330.0000  plane waves:   3607
 k-point  9 :  0.16670.08330.0000  plane waves:   3596
 k-point 10 :  0.25000.08330.0000  plane waves:   3592
 k-point 11 :  0.33330.08330.0000  plane waves:   3569
 k-point 12 :  0.41670.08330.0000  plane waves:   3559
 k-point 13 :  0.50000.08330.0000  plane waves:   3558
 k-point 14 :  0.16670.16670.0000  plane waves:   3595
 k-point 15 :  0.25000.16670.0000  plane waves:   3579
 k-point 16 :  0.33330.16670.0000  plane waves:   3587
 k-point 17 :  0.41670.16670.0000  plane waves:   3575
 k-point 18 :  0.50000.16670.0000  plane waves:   3574
 k-point 19 :  0.25000.25000.0000  plane waves:   3585
 k-point 20 :  0.33330.25000.0000  plane waves:   3574
 k-point 21 :  0.41670.25000.0000  plane waves:   3575
 k-point 22 :  0.50000.25000.0000  plane waves:   3576
 k-point 23 :  0.33330.33330.0000  plane waves:   3596
 k-point 24 :  0.41670.33330.0000  plane waves:   3563
 k-point 25 :  0.50000.33330.0000  plane waves:   3558
 k-point 26 :  0.41670.41670.0000  plane waves:   3564
 k-point 27 :  0.50000.41670.0000  plane waves:   3562
 k-point 28 :  0.50000.50000.0000  plane waves:   3556
 k-point 29 :  0.08330.08330.0833  plane waves:   3605
 k-point 30 :  0.16670.08330.0833  plane waves:   3600
 k-point 31 :  0.25000.08330.0833  plane waves:   3583
 k-point 32 :  0.33330.08330.0833  plane waves:   3574
 k-point 33 :  0.41670.08330.0833  plane waves:   3572
 k-point 34 :  0.50000.08330.0833  plane waves:   3556
 k-point 35 :  0.16670.16670.0833  plane waves:   3597
 k-point 36 :  0.25000.16670.0833  plane waves:   3579
 k-point 37 :  0.33330.16670.0833  plane waves:   3579
 k-point 38 :  0.41670.16670.0833  plane waves:   3573
 k-point 39 :  0.50000.16670.0833  plane waves:   3560
 k-point 40 :  0.25000.25000.0833  plane waves:   3572
 k-point 41 :  0.33330.25000.0833  plane waves:   3573
 k-point 42 :  0.41670.25000.0833  plane waves:   3576
 k-point 43 :  0.50000.25000.0833  plane waves:   3568
 k-point 44 :  0.33330.33330.0833  plane waves:   3573
 k-point 45 :  0.41670.33330.0833  plane waves:   3558
 k-point 46 :  0.50000.33330.0833  plane waves:   3560
 k-point 47 :  0.41670.41670.0833  plane waves:   3568
 k-point 48 :  0.50000.41670.0833  plane waves:   3564
 k-point 49 :  0.50000.50000.0833  plane waves:   3568
 k-point 50 :  0.16670.16670.1667  plane waves:   3596
 k-point 51 :  0.25000.16670.1667  plane waves:   3581
 k-point 52 :  0.33330.16670.1667  plane waves:   3579
 k-point 53 :  0.41670.16670.1667  plane waves:   3569
 k-point 54 :  0.50000.16670.1667  plane waves:   3546
 k-point 55 :  0.25000.25000.1667  plane waves:   3576
 k-point 56 :  0.33330.25000.1667  plane waves:   3572
 k-point 57 :  0.41670.25000.1667  plane waves:   3563
 k-point 58 :  0.50000.25000.1667  plane waves:   3556
 k-point 59 :  0.33330.33330.1667  plane waves:   3561
 k-point 60 :  0.41670.33330.1667  plane waves:   3565
[...]
 k-point 70 :  0.41670.33330.2500  plane waves:   3572
 k-point 71 :  0.50000.33330.2500  plane waves:   3564
 k-point 72 :  0.41670.41670.2500  plane waves:   3573
 k-point 73 :  0.50000.41670.2500  plane waves:   3568
 k-point 74 :  0.50000.50000.2500  plane waves:   3556
 k-point 75 :  0.33330.33330.3333  plane waves:   3554
 k-point 76 :  0.41670.33330.3333  plane waves:   3574
 k-point 77 :  0.50000.33330.3333  plane waves:   3574
 k-point 78 :  0.41670.41670.3333  plane waves:   3567
 k-point 79 :  0.50000.41670.3333  plane waves:   3568
 k-point 80 :  0.50000.50000.3333  plane waves:   3544
 k-point 81 :  0.41670.41670.4167  plane waves:   3560
 k-point 82 :  0.50000.41670.4167  plane waves:   3552
 k-point 83 :  0.50000.50000.4167  plane waves:   3552
 k-point 84 :  0.50000.50000.5000  plane waves:   3544

 maximum and minimum number of plane-waves per node :   3607  3544

 maximum number of plane-waves:   3607
 maximal index in each direction:
   IXMAX=  9   IYMAX=  9   IZMAX=  9
   IXMIN= -9   IYMIN= -9   IZMIN= -9

 NGX is ok and might be reduce to  38
 NGY is ok and might be reduce to  38
 NGZ is ok and might be reduce to  38

 parallel 3dFFT wavefunction:
    minimum data exchange during FFTs selected (reduces bandwidth)
 parallel 3dFFT charge:
    minimum data exchange during FFTs selected (reduces bandwidth)

Broyden mixing: mesh for mixing (old mesh)
   NGX = 19   NGY = 19   NGZ = 19
  (NGX  = 80   NGY  = 80   NGZ  = 80)
 gives a total of   6859 points
 initial charge density was supplied:
 charge density of overlapping atoms calculated
 number of electron   44.0000000 magnetization
 keeping initial charge density in first step

 Maximum index for augmentation-charges        79857 (set IRDMAX)

 First call to EWALD:  gamma=   0.417
 Maximum number of real-space cells 3x 3x 3
 Maximum number of reciprocal cells 3x 3x 3

----------------------------------------- Iteration    1(   1)  ---------------------------------------

 eigenvalue-minimisations  :  4704
 total energy-change (2. order) : 0.4719215E+03  (-0.2751796E+04)
 number of electron   44.0000000 magnetization
 augmentation part    44.0000000 magnetization

 Free energy of the ion-electron system (eV)
  alpha Z        PSCENC =       371.03795147
  Ewald energy   TEWEN  =     -3762.42357771
  -1/2 Hartree   DENC   =      -882.44866578
  -V(xc)+E(xc)   XCENC  =       -43.98900351
  PAW double counting   =      3482.67677651    -3297.07979946
  entropy T*S    EENTRO =        -0.00012437
  eigenvalues    EBANDS =       454.49832949
  atomic energy  EATOM  =      4149.64961272
  free energy    TOTEN  =       471.92149935 eV

  energy without entropy =      471.92162372  energy(sigma->0) =      471.92156153

[...]

 eigenvalue-minimisations  :  4736
 total energy-change (2. order) :-0.4682779E+03  (-0.4468088E+03)
 number of electron   44.0000000 magnetization
 augmentation part    44.0000000 magnetization

[...]

 Broyden mixing:
  rms(total) = 0.52667E+00    rms(broyden)= 0.52667E+00
  rms(prec ) = 0.13005E+01
  weight for this iteration     100.00

[...]

 eigenvalues of (default mixing * dielectric matrix)
  average eigenvalue GAMMA=   1.0358
  1.0358

[...]

 eigenvalue-minimisations  :  5008
 total energy-change (2. order) :-0.1215866E-03  (-0.1896936E-04)
 number of electron   44.0000001 magnetization
 augmentation part    21.1562271 magnetization

[...]

 Broyden mixing:
  rms(total) = 0.54004E-05    rms(broyden)= 0.54004E-05
  rms(prec ) = 0.10908E-04
  weight for this iteration     100.00

 eigenvalues of (default mixing * dielectric matrix)
  average eigenvalue GAMMA=   1.8078
  2.8281  2.5675  2.5675  2.4952  1.0117  1.0117  0.9628  1.0176

[...]

----------------------------------------- Iteration    1(  14)  ---------------------------------------

 eigenvalue-minimisations  :  2492
 total energy-change (2. order) : 0.5902621E-09  (-0.2010271E-10)
 number of electron   44.0000001 magnetization
 augmentation part    21.1549652 magnetization

 Free energy of the ion-electron system (eV)
  alpha Z        PSCENC =       371.03795147
  Ewald energy   TEWEN  =     -3762.42357771
  -1/2 Hartree   DENC   =      -837.26320144
  -V(xc)+E(xc)   XCENC  =       -45.66741039
  PAW double counting   =      3454.46774270    -3276.13746787
  entropy T*S    EENTRO =        -0.00004043
  eigenvalues    EBANDS =       -64.91618250
  atomic energy  EATOM  =      4149.64961272
  free energy    TOTEN  =       -11.25257347 eV

  energy without entropy =      -11.25253304  energy(sigma->0) =      -11.25255326

 average (electrostatic) potential at core
  the test charge radii are     1.1249
  (the norm of the test charge is              1.0000)
       1 -41.9775       2 -41.9775       3 -41.9775       4 -41.9775

 E-fermi :   2.6203     XC(G=0): -11.5326     alpha+bet : -7.6060
   add alpha+bet to get absolut eigen values

 k-point   1 :       0.0000    0.0000    0.0000
  band No.  band energies     occupation
      1      -4.4059      2.00000
      2      -3.2179      2.00000
      3      -3.2179      2.00000
      4      -3.2179      2.00000
      5      -3.1191      2.00000
      6      -3.1191      2.00000
      7      -3.1191      2.00000
      8      -1.8964      2.00000
      9      -1.8964      2.00000
     10      -1.8964      2.00000
     11      -1.0548      2.00000
     12      -1.0548      2.00000
     13      -0.4333      2.00000
     14      -0.4333      2.00000
     15      -0.4333      2.00000
     16      -0.2375      2.00000
     17      -0.2375      2.00000
     18      -0.2375      2.00000
     19      -0.2375      2.00000
     20      -0.2375      2.00000
     21      -0.2375      2.00000
     22       4.2699      0.00000
     23       4.2699      0.00000
     24       4.2699      0.00000
     25       8.4509      0.00000
     26       8.4509      0.00000
     27       8.4509      0.00000
     28      12.7727      0.00000

[...]

 k-point  84 :       0.5000    0.5000    0.5000
  band No.  band energies     occupation
      1      -3.1949      2.00000
      2      -3.1949      2.00000
      3      -3.1949      2.00000
      4      -3.1949      2.00000
      5      -1.9102      2.00000
      6      -1.9102      2.00000
      7      -1.9102      2.00000
      8      -1.9102      2.00000
      9      -1.9102      2.00000
     10      -1.9102      2.00000
     11      -1.9102      2.00000
     12      -1.9102      2.00000
     13      -0.4058      2.00000
     14      -0.4058      2.00000
     15      -0.4058      2.00000
     16      -0.4058      2.00000
     17      -0.4058      2.00000
     18      -0.4058      2.00000
     19      -0.4058      2.00000
     20      -0.4058      2.00000
     21       2.4502      2.00000
     22       2.4502      2.00000
     23       2.4502      2.00000
     24       2.4502      2.00000
     25       5.5648      0.00000
     26       5.5648      0.00000
     27       5.5648      0.00000
     28       5.5648      0.00000

 soft charge-density along one line, spin component           1
         0         1         2         3         4         5         6         7         8         9
 total charge-density along one line

------------------------ aborting loop because EDIFF is reached ----------------------------------------

  FREE ENERGIE OF THE ION-ELECTRON SYSTEM (eV)
  free  energy   TOTEN  =       -11.252573 eV

  energy  without entropy=      -11.252533  energy(sigma->0) =      -11.252553

  FORCE on cell =-STRESS in cart. coord.  units (eV/reduce length):
  Direction    X        Y        Z        XY       YZ       ZX
  Alpha Z    371.04    371.04    371.04
  Ewald    -1254.14  -1254.14  -1254.14     -0.00     -0.00     -0.00
  Hartree    279.09    279.09    279.09     -0.00     -0.00     -0.00
  E(xc)     -232.00   -232.00   -232.00      0.00      0.00      0.00
  Local      389.83    389.83    389.83      0.00      0.00      0.00
  n-local   -261.26   -268.68   -270.82      0.18      2.20      0.62
  augment    167.38    167.38    167.38     -0.00     -0.00     -0.00
  Kinetic    550.97    542.31    537.53     -2.80      0.72     -1.00
  Total       -2.13     -2.13     -2.13     -0.00     -0.00      0.00
  in kB      -44.46    -44.46    -44.46     -0.00     -0.00      0.00

 VOLUME and BASIS-vectors are now :
  energy-cutoff  :      750.00
  volume of cell :       76.58
      direct lattice vectors                 reciprocal lattice vectors
     4.246489277  0.000000000  0.000000000     0.235488644  0.000000000  0.000000000
     0.000000000  4.246489277  0.000000000     0.000000000  0.235488644  0.000000000
     0.000000000  0.000000000  4.246489277     0.000000000  0.000000000  0.235488644

  length of vectors
     4.246489277  4.246489277  4.246489277     0.235488644  0.235488644  0.235488644

 FORCES acting on ions
    electron-ion (+dipol)            ewald-force                    non-local-force                 convergence-correction
   0.106E-15 0.769E-14 -.941E-15   -.968E-14 -.120E-13 -.119E-13   0.258E-25 0.258E-25 0.291E-25   -.818E-13 -.859E-13 -.675E-13
   -.786E-13 -.727E-12 -.274E-11   0.258E-14 0.773E-16 -.121E-13   -.129E-24 0.000E+00 0.157E-24   0.757E-13 0.358E-13 -.721E-13
   -.796E-13 0.897E-14 -.341E-11   0.525E-14 0.462E-15 0.109E-13   0.258E-25 -.181E-24 0.258E-25   0.780E-13 -.816E-13 0.560E-13
   0.107E-14 -.718E-13 -.837E-13   0.119E-14 0.126E-13 0.106E-13   0.517E-25 0.000E+00 0.258E-25   -.895E-13 0.327E-13 0.598E-13
   -.157E-12 -.782E-12 -.623E-11   -.670E-15 0.108E-14 -.251E-14   -.258E-25 -.155E-24 0.237E-24   -.176E-13 -.990E-13 -.237E-13

 POSITION                                       TOTAL-FORCE (eV/Angst)
      0.00000      0.00000      0.00000        -0.000000     -0.000000      0.000000
      2.12324      2.12324      0.00000         0.000000      0.000000      0.000000
      2.12324      0.00000      2.12324        -0.000000     -0.000000     -0.000000
      0.00000      2.12324      2.12324        -0.000000     -0.000000     -0.000000
    total drift:                               -0.000000     -0.000000     -0.000000

 mean value of Nose-termostat <S>:     1.000 mean value of <T> :     0.000
 mean temperature <T/S>/<1/S>  :     0.000