 vasp.4.6.28 25Jul05 complex
 executed on             LinuxIFC date 2016.08.29  18:44:02

 INCAR:
 POTCAR:   PAW_PBE Cu 05Jan2001
 POTCAR:   PAW_PBE Cu 05Jan2001
   VRHFIN =Cu: d10 p1

   TITEL  = PAW_PBE Cu 05Jan2001
   POMASS =   63.546; ZVAL   =   11.000    mass and valenz
   ENMAX  =  273.214; ENMIN  =  204.910 eV
   QCUT   =   -4.481; QGAM   =    8.962    optimization parameters

   Description
     l     E      TYP  RCUT    TYP  RCUT
     2   .000     23  2.300
     2   .000     23  2.300
     0   .000     23  2.300
     0   .000     23  2.300
     1  -.200     23  2.300
     1   .000     23  2.300
     3   .000      7   .000

 PAW_PBE Cu 05Jan2001                   :

 POSCAR: No title
  positions in direct lattice

 ion  position               nearest neighbor table
   1  0.667  0.667  0.333-   5 2.55   8 2.55   9 2.55  43 2.55  60 2.55  59 2.55   3 2.55  38 2.55
                             2 2.55  19 2.55  34 2.55 101 2.55
   2  0.667  0.833  0.500-   3 2.55  14 2.55   9 2.55  10 2.55  34 2.55  39 2.55   1 2.55   6 2.55
                            61 2.55  97 2.55  60 2.55  35 2.55
   3  0.833  0.667  0.500-   2 2.55   9 2.55  14 2.55  12 2.55   1 2.55  19 2.55  39 2.55  11 2.55
                            49 2.55  87 2.55  44 2.55  43 2.55
   4  0.667  0.667  0.000-  21 2.55  15 2.55  66 2.55  83 2.55  20 2.55   8 2.55   5 2.55  38 2.55
                            59 2.55 107 2.55  82 2.55  63 2.55
   5  0.667  0.833  0.167-   1 2.55   8 2.55   9 2.55  21 2.55  60 2.55  59 2.55  22 2.55   6 2.55
                             4 2.55  16 2.55  84 2.55  83 2.55
   6  0.667  0.000  0.333-  22 2.55  17 2.55   9 2.55  10 2.55  23 2.55  84 2.55   5 2.55  61 2.55
                             2 2.55  85 2.55  60 2.55   7 2.55
   7  0.667  0.167  0.500-  24 2.55  18 2.55  10 2.55  86 2.55  23 2.55  64 2.55  62 2.55  35 2.55
                           105 2.55  61 2.55  85 2.55   6 2.55
   8  0.833  0.667  0.167-   1 2.55   5 2.55   9 2.55  21 2.55  43 2.55   4 2.55  26 2.55  38 2.55
                            11 2.55  25 2.55  70 2.55  66 2.55
   9  0.833  0.833  0.333-   1 2.55   5 2.55   8 2.55   6 2.55   3 2.55  11 2.55  22 2.55   2 2.55
                            26 2.55  27 2.55  12 2.55  10 2.55
  10  0.833  0.000  0.500-   7 2.55  35 2.55   2 2.55   6 2.55  23 2.55  27 2.55  12 2.55  39 2.55
                            28 2.55  67 2.55  64 2.55   9 2.55
  11  0.000  0.667  0.333-  26 2.55   9 2.55  29 2.55   8 2.55  30 2.55  70 2.55  12 2.55  49 2.55
                             3 2.55  75 2.55  43 2.55  13 2.55
  12  0.000  0.833  0.500-  13 2.55  44 2.55   3 2.55  11 2.55  27 2.55  30 2.55  39 2.55  10 2.55
                            31 2.55   9 2.55  71 2.55  67 2.55
  13  0.167  0.667  0.500-  33 2.55  30 2.55  12 2.55  81 2.55  32 2.55  76 2.55  71 2.55  44 2.55
                           102 2.55  49 2.55  11 2.55  75 2.55
  14  0.667  0.667  0.667-  20 2.55  39 2.55  15 2.55   2 2.55  63 2.55  87 2.55  97 2.55   3 2.55
                            82 2.55 108 2.55  34 2.55  19 2.55
  15  0.667  0.833  0.833-  20 2.55  39 2.55  14 2.55  35 2.55   4 2.55  21 2.55  40 2.55  82 2.55
                            97 2.55  83 2.55  98 2.55  16 2.55
  16  0.667  0.000  0.000-  21 2.55  40 2.55  22 2.55  41 2.55   5 2.55  36 2.55  84 2.55  99 2.55
                            83 2.55  98 2.55  17 2.55  15 2.55
  17  0.667  0.167  0.167-  23 2.55  42 2.55  18 2.55   6 2.55  37 2.55  22 2.55 100 2.55  85 2.55
                            41 2.55  84 2.55  99 2.55  16 2.55
  18  0.667  0.333  0.333-  23 2.55  42 2.55  17 2.55  38 2.55   7 2.55  24 2.55  43 2.55  85 2.55
                           100 2.55  86 2.55 101 2.55  19 2.55
  19  0.667  0.500  0.500-  24 2.55  43 2.55   3 2.55  87 2.55   1 2.55  62 2.55  34 2.55 108 2.55
                            86 2.55 101 2.55  14 2.55  18 2.55
  20  0.833  0.667  0.833-  15 2.55  39 2.55  14 2.55   4 2.55  44 2.55  45 2.55  63 2.55  87 2.55
                            21 2.55  66 2.55  89 2.55  25 2.55
  21  0.833  0.833  0.000-   4 2.55   8 2.55  16 2.55  25 2.55   5 2.55  15 2.55  20 2.55  40 2.55
                            45 2.55  26 2.55  22 2.55  46 2.56
  22  0.833  0.000  0.167-   6 2.55   9 2.55  17 2.55  16 2.55   5 2.55  27 2.55  23 2.55  26 2.55
                            41 2.55  47 2.55  21 2.55  46 2.56
  23  0.833  0.167  0.333-  18 2.55  42 2.55  17 2.55   7 2.55  47 2.55   6 2.55  48 2.55  22 2.55
                            24 2.55  27 2.55  10 2.55  28 2.55
  24  0.833  0.333  0.500-   7 2.55  19 2.55  28 2.55  64 2.55  62 2.55  18 2.55  23 2.55  43 2.55
                            48 2.55  49 2.55  88 2.55  87 2.55
  25  0.000  0.667  0.000-  21 2.55  45 2.55  51 2.55  26 2.55  50 2.55   8 2.55  70 2.55  92 2.55
                            66 2.55  20 2.55  29 2.55  89 2.55
  26  0.000  0.833  0.167-  11 2.55  29 2.55   9 2.55   8 2.55  30 2.55  27 2.55  25 2.55  22 2.55
                            51 2.55  52 2.55  21 2.55  46 2.55
  27  0.000  0.000  0.333-  47 2.55  52 2.55  22 2.55  26 2.55  12 2.55  30 2.55  10 2.55  23 2.55
                             9 2.55  53 2.55  31 2.55  28 2.55
  28  0.000  0.167  0.500-  24 2.55  48 2.55  54 2.55  88 2.55  31 2.55  64 2.55  67 2.55  53 2.55
                            10 2.55  23 2.55  90 2.55  27 2.55
  29  0.167  0.667  0.167-  32 2.55  56 2.55  30 2.55  51 2.55  26 2.55  75 2.55  96 2.55  55 2.55
                            11 2.55  70 2.55  25 2.55  92 2.55
  30  0.167  0.833  0.333-  32 2.55  56 2.55  29 2.55  52 2.55  13 2.55  33 2.55  11 2.55  26 2.55
                            57 2.55  12 2.55  27 2.55  31 2.55
  31  0.167  0.000  0.500-  33 2.55  57 2.55  58 2.55  93 2.55  53 2.55  67 2.55  71 2.55  28 2.55
                            12 2.55  27 2.55  90 2.55  30 2.55
  32  0.333  0.667  0.333-  30 2.55  56 2.55  29 2.55  13 2.55  59 2.55  60 2.55  75 2.55  96 2.55
                            33 2.55  81 2.55 101 2.55  34 2.55
  33  0.333  0.833  0.500-  13 2.55  31 2.55  34 2.55  76 2.55  71 2.55  30 2.55  32 2.55  57 2.55
                            60 2.55  61 2.55  97 2.55  93 2.55
  34  0.500  0.667  0.500-  33 2.55  60 2.55   2 2.55  97 2.55  19 2.55  76 2.55   1 2.55 108 2.55
                            81 2.55  14 2.55  32 2.55 101 2.55
  35  0.667  0.000  0.667-  40 2.55  39 2.55  15 2.55  10 2.55  98 2.55  64 2.55  36 2.55   7 2.55
                           105 2.55  97 2.55  61 2.55   2 2.55
  36  0.667  0.167  0.833-  62 2.55  64 2.55  65 2.55  40 2.55 106 2.55 105 2.55  41 2.55  35 2.55
                            37 2.55  16 2.55  99 2.55  98 2.55
  37  0.667  0.333  0.000-  41 2.55  17 2.55  65 2.55  42 2.55  66 2.55  99 2.55  36 2.55  63 2.55
                           100 2.55 107 2.55 106 2.55  38 2.55
  38  0.667  0.500  0.167-  43 2.55  42 2.55  18 2.55  66 2.55 101 2.55   8 2.55   1 2.55   4 2.55
                            59 2.55 100 2.55 107 2.55  37 2.55
  39  0.833  0.833  0.667-  15 2.55  20 2.55  14 2.55  35 2.55  44 2.55   2 2.55  45 2.55  40 2.55
                             3 2.55  12 2.55  10 2.55  67 2.55
  40  0.833  0.000  0.833-  35 2.55  36 2.55  64 2.55  16 2.55  67 2.55  15 2.55  39 2.55  21 2.55
                            45 2.55  68 2.55  41 2.55  46 2.56
  41  0.833  0.167  0.000-  37 2.55  65 2.55  17 2.55  16 2.55  36 2.55  69 2.55  42 2.55  68 2.55
                            22 2.55  47 2.55  40 2.55  46 2.56
  42  0.833  0.333  0.167-  18 2.55  23 2.55  17 2.55  38 2.55  47 2.55  37 2.55  48 2.55  43 2.55
                            41 2.55  66 2.55  69 2.55  70 2.55
  43  0.833  0.500  0.333-  38 2.55   8 2.55   1 2.55  19 2.55  70 2.55  18 2.55  42 2.55  48 2.55
                            24 2.55  11 2.55  49 2.55   3 2.55
  44  0.000  0.667  0.667-  45 2.55  39 2.55  12 2.55  89 2.55  20 2.55  71 2.55  50 2.55  13 2.55
                           102 2.55  87 2.55   3 2.55  49 2.55
  45  0.000  0.833  0.833-  44 2.55  25 2.55  50 2.55  67 2.55  71 2.55  20 2.55  39 2.55  21 2.55
                            40 2.55  72 2.55  51 2.55  46 2.55
  46  0.002  0.000  0.000-  51 2.53  72 2.53  52 2.53  73 2.53  26 2.55  68 2.55  47 2.55  45 2.55
                            41 2.56  22 2.56  21 2.56  40 2.56
  47  0.000  0.167  0.167-  48 2.55  42 2.55  27 2.55  69 2.55  23 2.55  53 2.55  74 2.55  73 2.55
                            52 2.55  22 2.55  41 2.55  46 2.55
  48  0.000  0.333  0.333-  47 2.55  28 2.55  53 2.55  70 2.55  74 2.55  23 2.55  42 2.55  24 2.55
                            43 2.55  75 2.55  54 2.55  49 2.55
  49  0.000  0.500  0.500-   3 2.55  11 2.55  54 2.55  75 2.55  87 2.55  88 2.55  13 2.55  24 2.55
                            43 2.55 102 2.55  48 2.55  44 2.55
  50  0.167  0.667  0.833-  71 2.55  76 2.55  77 2.55  45 2.55 104 2.55  44 2.55  55 2.55 102 2.55
                            51 2.55  25 2.55  92 2.55  89 2.55
  51  0.167  0.833  0.000-  46 2.53  55 2.55  29 2.55  77 2.55  56 2.55  25 2.55  78 2.55  50 2.55
                            26 2.55  72 2.55  45 2.55  52 2.55
  52  0.167  0.000  0.167-  46 2.53  57 2.55  56 2.55  30 2.55  27 2.55  78 2.55  79 2.55  53 2.55
                            47 2.55  73 2.55  26 2.55  51 2.55
  53  0.167  0.167  0.333-  74 2.55  79 2.55  80 2.55  57 2.55  48 2.55  58 2.55  47 2.55  52 2.55
                            54 2.55  31 2.55  28 2.55  27 2.55
  54  0.167  0.333  0.500-  58 2.55  90 2.55  80 2.55  81 2.55  28 2.55 103 2.55  53 2.55  88 2.55
                            49 2.55  75 2.55  48 2.55 102 2.55
  55  0.333  0.667  0.000-  51 2.55  77 2.55  29 2.55  50 2.55  83 2.55  92 2.55  56 2.55  82 2.55
                            96 2.55 107 2.55  59 2.55 104 2.55
  56  0.333  0.833  0.167-  30 2.55  32 2.55  29 2.55  52 2.55  59 2.55  51 2.55  60 2.55  57 2.55
                            55 2.55  78 2.55  83 2.55  84 2.55
  57  0.333  0.000  0.333-  52 2.55  53 2.55  79 2.55  31 2.55  84 2.55  30 2.55  56 2.55  33 2.55
                            60 2.55  85 2.55  61 2.55  58 2.55
  58  0.333  0.167  0.500-  54 2.55  80 2.55  90 2.55  53 2.55  86 2.55  31 2.55 103 2.55  85 2.55
                            93 2.55  61 2.55 105 2.55  57 2.55
  59  0.500  0.667  0.167-  60 2.55  56 2.55  83 2.55 101 2.55  32 2.55   5 2.55   1 2.55   4 2.55
                            38 2.55  96 2.55  55 2.55 107 2.55
  60  0.500  0.833  0.333-  59 2.55  34 2.55   1 2.55  84 2.55   5 2.55  32 2.55  56 2.55  33 2.55
                            57 2.55   6 2.55   2 2.55  61 2.55
  61  0.500  0.000  0.500-   2 2.55   6 2.55  58 2.55  85 2.55  93 2.55  97 2.55   7 2.55  33 2.55
                            35 2.55  57 2.55  60 2.55 105 2.55
  62  0.667  0.333  0.667-  36 2.55  64 2.55  65 2.55  24 2.55 106 2.55 105 2.55  87 2.55  63 2.55
                             7 2.55  19 2.55 108 2.55  86 2.55
  63  0.667  0.500  0.833-  87 2.55  65 2.55  14 2.55  66 2.55  20 2.55 108 2.55  62 2.55  37 2.55
                           107 2.55  82 2.55 106 2.55   4 2.55
  64  0.833  0.167  0.667-  36 2.55  62 2.55  65 2.55  24 2.55  40 2.55   7 2.55  35 2.55  68 2.55
                            88 2.55  28 2.55  67 2.55  10 2.55
[...]
     0.000000200 10.807229300  0.000000000     0.000000000  0.092530654 -0.000000002
     0.000000200  0.000000200 10.807229300     0.000000000  0.000000000  0.092530654

  length of vectors
    10.807229300 10.807229300 10.807229300     0.092530654  0.092530654  0.092530654

 FORCES acting on ions
    electron-ion (+dipol)            ewald-force                    non-local-force                 convergence-correction
   -.115E+00 -.889E-01 0.889E-01   0.116E+00 0.833E-01 -.833E-01   0.593E-03 0.194E-03 -.194E-03   -.256E-02 0.508E-02 -.508E-02
   -.117E+00 -.575E-01 0.121E-07   0.122E+00 0.530E-01 -.122E-07   -.224E-02 0.474E-03 0.000E+00   -.295E-02 0.393E-02 -.626E-09
   0.604E-01 -.572E-01 0.116E-08   -.699E-01 0.532E-01 -.901E-09   -.597E-03 -.404E-03 0.000E+00   0.993E-02 0.417E-02 -.281E-09
   -.300E+00 -.295E+00 0.142E-08   0.293E+00 0.283E+00 -.547E-09   0.696E-02 0.458E-02 0.000E+00   -.370E-03 0.784E-02 0.345E-09
   -.594E+00 -.352E+00 0.352E+00   0.595E+00 0.346E+00 -.346E+00   -.848E-02 -.378E-02 0.378E-02   0.847E-02 0.103E-01 -.103E-01
   -.300E+00 0.559E-08 0.295E+00   0.293E+00 -.558E-08 -.283E+00   0.696E-02 -.847E-10 -.458E-02   -.370E-03 0.128E-09 -.784E-02
   -.117E+00 0.575E-01 0.390E-08   0.122E+00 -.530E-01 -.373E-08   -.224E-02 -.474E-03 0.000E+00   -.295E-02 -.393E-02 -.172E-09
   0.116E+00 -.355E+00 0.195E+00   -.121E+00 0.349E+00 -.191E+00   -.424E-02 -.493E-02 0.116E-02   0.981E-02 0.119E-01 -.524E-02
   0.116E+00 -.195E+00 0.355E+00   -.121E+00 0.191E+00 -.349E+00   -.424E-02 -.116E-02 0.493E-02   0.981E-02 0.524E-02 -.119E-01
   0.101E+00 -.246E-09 -.568E-08   -.112E+00 0.398E-09 0.611E-08   0.269E-02 0.217E-20 0.000E+00   0.881E-02 -.335E-09 0.668E-10
   0.229E+00 -.438E-02 0.437E-02   -.238E+00 0.852E-03 -.852E-03   -.138E-02 0.172E-03 -.172E-03   0.102E-01 0.321E-02 -.321E-02
   0.237E+00 -.311E-02 -.160E-07   -.247E+00 0.548E-03 0.166E-07   -.609E-03 0.213E-03 0.000E+00   0.106E-01 0.223E-02 0.446E-09
   0.654E-01 0.498E-01 -.715E-08   -.717E-01 -.531E-01 0.774E-08   -.101E-02 0.106E-02 0.000E+00   0.721E-02 0.205E-02 0.136E-09
   -.115E+00 -.889E-01 -.889E-01   0.116E+00 0.833E-01 0.833E-01   0.593E-03 0.194E-03 0.194E-03   -.256E-02 0.508E-02 0.508E-02
   -.594E+00 -.352E+00 -.352E+00   0.595E+00 0.346E+00 0.346E+00   -.848E-02 -.378E-02 -.378E-02   0.847E-02 0.103E-01 0.103E-01
   -.172E+01 0.220E-08 0.229E-08   0.172E+01 -.555E-09 -.555E-09   -.288E-01 -.270E-19 0.000E+00   0.250E-01 0.428E-09 0.428E-09
   -.594E+00 0.352E+00 0.352E+00   0.595E+00 -.346E+00 -.346E+00   -.848E-02 0.378E-02 0.378E-02   0.847E-02 -.103E-01 -.103E-01
   -.115E+00 0.889E-01 0.889E-01   0.116E+00 -.833E-01 -.833E-01   0.593E-03 -.194E-03 -.194E-03   -.256E-02 -.508E-02 -.508E-02
   -.587E-01 0.289E-08 0.299E-08   0.622E-01 -.292E-08 -.292E-08   -.878E-05 0.154E-21 -.424E-21   -.356E-02 -.146E-09 -.146E-09
   0.116E+00 -.355E+00 -.195E+00   -.121E+00 0.349E+00 0.191E+00   -.424E-02 -.493E-02 -.116E-02   0.981E-02 0.119E-01 0.524E-02
   -.119E+01 -.310E+01 0.107E-07   0.119E+01 0.311E+01 0.389E-09   0.134E-01 -.368E-02 -.678E-20   -.987E-03 0.155E-01 0.201E-10
   -.119E+01 0.535E-07 0.310E+01   0.119E+01 -.569E-07 -.311E+01   0.134E-01 0.680E-10 0.368E-02   -.987E-03 -.760E-09 -.155E-01
   0.116E+00 0.195E+00 0.355E+00   -.121E+00 -.191E+00 -.349E+00   -.424E-02 0.116E-02 0.493E-02   0.981E-02 -.524E-02 -.119E-01
   0.604E-01 0.572E-01 -.754E-08   -.699E-01 -.532E-01 0.765E-08   -.597E-03 0.404E-03 0.000E+00   0.993E-02 -.417E-02 0.225E-09
   0.685E+00 -.964E-02 -.120E-08   -.694E+00 0.574E-02 0.887E-09   0.587E-02 -.426E-03 0.678E-20   0.308E-02 0.437E-02 -.617E-09
   0.201E+01 -.206E-01 0.206E-01   -.202E+01 0.175E-01 -.175E-01   0.156E-01 0.547E-03 -.547E-03   -.106E-01 0.257E-02 -.257E-02
   0.685E+00 -.125E-08 0.964E-02   -.694E+00 0.778E-09 -.574E-02   0.587E-02 0.789E-11 0.426E-03   0.308E-02 -.500E-09 -.437E-02
   0.237E+00 0.311E-02 -.160E-07   -.247E+00 -.548E-03 0.167E-07   -.609E-03 -.213E-03 0.136E-19   0.106E-01 -.223E-02 0.487E-09
   0.124E+00 0.347E+00 -.189E+00   -.127E+00 -.349E+00 0.190E+00   -.441E-02 0.478E-02 -.110E-02   0.734E-02 -.419E-02 -.411E-03
   0.124E+00 0.189E+00 -.347E+00   -.127E+00 -.190E+00 0.349E+00   -.441E-02 0.110E-02 -.478E-02   0.734E-02 0.411E-03 0.419E-02
   0.106E+00 -.331E-09 -.578E-08   -.116E+00 0.409E-09 0.637E-08   0.211E-02 -.207E-20 0.271E-19   0.737E-02 -.252E-09 0.485E-10
   -.107E+00 0.821E-01 -.821E-01   0.115E+00 -.842E-01 0.842E-01   0.281E-03 0.371E-03 -.371E-03   -.813E-02 0.177E-02 -.177E-02
   -.110E+00 0.516E-01 0.339E-08   0.120E+00 -.533E-01 -.361E-08   -.258E-02 -.141E-03 0.000E+00   -.795E-02 0.173E-02 -.170E-09
   -.126E+00 -.393E-02 0.683E-08   0.143E+00 -.332E-03 -.699E-08   0.104E-02 0.257E-03 -.847E-21   -.171E-01 0.386E-02 -.204E-09
   -.300E+00 -.423E-08 -.295E+00   0.293E+00 0.469E-08 0.283E+00   0.696E-02 0.847E-10 0.458E-02   -.370E-03 0.490E-09 0.784E-02
   -.594E+00 0.352E+00 -.352E+00   0.595E+00 -.346E+00 0.346E+00   -.848E-02 0.378E-02 -.378E-02   0.847E-02 -.103E-01 0.103E-01
   -.300E+00 0.295E+00 0.126E-09   0.293E+00 -.283E+00 -.345E-09   0.696E-02 -.458E-02 0.678E-20   -.370E-03 -.784E-02 0.273E-09
   -.117E+00 0.478E-08 0.575E-01   0.122E+00 -.471E-08 -.530E-01   -.224E-02 -.878E-11 -.474E-03   -.295E-02 -.245E-09 -.393E-02
   0.116E+00 -.195E+00 -.355E+00   -.121E+00 0.191E+00 0.349E+00   -.424E-02 -.116E-02 -.493E-02   0.981E-02 0.524E-02 0.119E-01
   -.119E+01 -.465E-07 -.310E+01   0.119E+01 0.579E-07 0.311E+01   0.134E-01 -.680E-10 -.368E-02   -.987E-03 0.308E-09 0.155E-01
   -.119E+01 0.310E+01 -.388E-08   0.119E+01 -.311E+01 0.609E-09   0.134E-01 0.368E-02 0.000E+00   -.987E-03 -.155E-01 -.472E-09
   0.116E+00 0.355E+00 0.195E+00   -.121E+00 -.349E+00 -.191E+00   -.424E-02 0.493E-02 0.116E-02   0.981E-02 -.119E-01 -.524E-02
   0.604E-01 -.630E-08 0.572E-01   -.699E-01 0.666E-08 -.532E-01   -.597E-03 0.747E-11 0.404E-03   0.993E-02 0.148E-09 -.417E-02
   0.229E+00 -.438E-02 -.438E-02   -.238E+00 0.852E-03 0.852E-03   -.138E-02 0.172E-03 0.172E-03   0.102E-01 0.321E-02 0.321E-02
   0.201E+01 -.206E-01 -.206E-01   -.202E+01 0.175E-01 0.175E-01   0.156E-01 0.547E-03 0.547E-03   -.106E-01 0.257E-02 0.257E-02
   0.123E+02 -.194E-06 0.456E-04   -.124E+02 0.211E-06 0.211E-06   -.368E-01 0.216E-19 0.000E+00   -.105E-01 -.113E-08 -.113E-08
   0.201E+01 0.206E-01 0.206E-01   -.202E+01 -.175E-01 -.175E-01   0.156E-01 -.547E-03 -.547E-03   -.106E-01 -.257E-02 -.257E-02
   0.229E+00 0.438E-02 0.437E-02   -.238E+00 -.852E-03 -.852E-03   -.138E-02 -.172E-03 -.172E-03   0.102E-01 -.321E-02 -.321E-02
   0.112E+00 -.553E-08 -.553E-08   -.124E+00 0.584E-08 0.584E-08   -.177E-02 -.144E-20 -.339E-20   0.137E-01 0.730E-10 0.730E-10
   0.124E+00 0.347E+00 0.189E+00   -.127E+00 -.349E+00 -.190E+00   -.441E-02 0.478E-02 0.110E-02   0.734E-02 -.419E-02 0.411E-03
   -.116E+01 0.314E+01 -.399E-08   0.117E+01 -.316E+01 0.618E-09   0.115E-01 0.590E-02 0.000E+00   -.322E-02 -.116E-01 -.527E-09
   -.116E+01 -.473E-07 -.314E+01   0.117E+01 0.589E-07 0.316E+01   0.115E-01 -.109E-09 -.590E-02   -.322E-02 0.393E-09 0.116E-01
   0.124E+00 -.189E+00 -.347E+00   -.127E+00 0.190E+00 0.349E+00   -.441E-02 -.110E-02 -.478E-02   0.734E-02 -.411E-03 0.419E-02
   0.654E-01 -.498E-01 0.856E-09   -.717E-01 0.531E-01 -.787E-09   -.101E-02 -.106E-02 0.000E+00   0.721E-02 -.205E-02 -.151E-09
   -.293E+00 0.293E+00 0.145E-09   0.292E+00 -.287E+00 -.334E-09   0.706E-02 -.428E-02 0.678E-20   -.602E-02 -.170E-02 0.249E-09
   -.587E+00 0.352E+00 -.352E+00   0.595E+00 -.352E+00 0.352E+00   -.809E-02 0.395E-02 -.395E-02   0.150E-02 -.539E-02 0.539E-02
   -.293E+00 -.444E-08 -.293E+00   0.292E+00 0.476E-08 0.287E+00   0.706E-02 0.792E-10 0.428E-02   -.602E-02 0.683E-09 0.170E-02
   -.110E+00 -.516E-01 0.119E-07   0.120E+00 0.533E-01 -.122E-07   -.258E-02 0.141E-03 0.000E+00   -.795E-02 -.173E-02 -.479E-09
   -.280E+00 -.238E-02 0.243E-02   0.297E+00 -.109E-02 0.560E-03   -.243E-02 0.392E-03 -.187E-03   -.147E-01 0.292E-02 -.269E-02
   -.280E+00 -.243E-02 0.238E-02   0.297E+00 -.560E-03 0.109E-02   -.243E-02 0.187E-03 -.392E-03   -.147E-01 0.269E-02 -.292E-02
[...]
   -.293E+00 -.293E+00 0.790E-09   0.292E+00 0.287E+00 -.545E-09   0.706E-02 0.428E-02 -.678E-20   -.602E-02 0.170E-02 0.652E-09
   -.110E+00 0.109E-07 -.516E-01   0.120E+00 -.112E-07 0.533E-01   -.258E-02 0.260E-11 0.141E-03   -.795E-02 -.511E-09 -.173E-02
   -.280E+00 -.243E-02 -.238E-02   0.297E+00 -.560E-03 -.109E-02   -.243E-02 0.187E-03 0.392E-03   -.147E-01 0.269E-02 0.292E-02
   -.707E+00 0.120E-08 0.166E-04   0.708E+00 -.105E-08 -.210E-02   0.461E-02 0.357E-11 0.193E-03   -.608E-02 0.961E-09 0.178E-02
   -.707E+00 -.166E-04 0.118E-08   0.708E+00 0.210E-02 -.101E-08   0.461E-02 -.193E-03 0.169E-20   -.608E-02 -.178E-02 0.107E-08
   -.280E+00 0.238E-02 0.243E-02   0.297E+00 0.109E-02 0.560E-03   -.243E-02 -.392E-03 -.187E-03   -.147E-01 -.292E-02 -.269E-02
   -.126E+00 0.670E-08 0.393E-02   0.143E+00 -.702E-08 0.332E-03   0.104E-02 -.476E-11 -.257E-03   -.171E-01 -.132E-09 -.386E-02
   0.654E-01 -.642E-08 0.498E-01   -.717E-01 0.675E-08 -.531E-01   -.101E-02 0.196E-10 0.106E-02   0.721E-02 0.174E-09 0.205E-02
   -.107E+00 -.821E-01 0.821E-01   0.115E+00 0.842E-01 -.842E-01   0.281E-03 -.371E-03 0.371E-03   -.813E-02 -.177E-02 0.177E-02
   -.110E+00 0.453E-08 0.516E-01   0.120E+00 -.460E-08 -.533E-01   -.258E-02 -.260E-11 -.141E-03   -.795E-02 -.138E-09 0.173E-02
   -.280E+00 0.243E-02 -.238E-02   0.297E+00 0.560E-03 -.109E-02   -.243E-02 -.187E-03 0.392E-03   -.147E-01 -.269E-02 0.292E-02
   -.280E+00 0.238E-02 -.243E-02   0.297E+00 0.109E-02 -.560E-03   -.243E-02 -.392E-03 0.187E-03   -.147E-01 -.292E-02 0.269E-02
   -.226E+00 0.136E-07 0.629E-09   0.235E+00 -.139E-07 -.807E-09   0.724E-02 -.227E-19 -.678E-20   -.157E-01 -.521E-09 0.702E-09
   -.126E+00 0.667E-08 -.393E-02   0.143E+00 -.699E-08 -.332E-03   0.104E-02 0.476E-11 0.257E-03   -.171E-01 -.132E-09 0.386E-02
   0.318E-03 0.694E-10 0.458E-04   0.643E-11 0.384E-11 0.145E-11   0.780E-02 -.443E-17 -.249E-17   -.753E-02 -.289E-10 -.227E-10

 POSITION                                       TOTAL-FORCE (eV/Angst)
      7.20482      7.20482      3.60241        -0.000443     -0.000275      0.000275
      7.20482      9.00602      5.40361        -0.000219     -0.000094      0.000000
      9.00602      7.20482      5.40361        -0.000200     -0.000159     -0.000000
      7.20482      7.20482      0.00000         0.000039     -0.000251      0.000000
      7.20482      9.00602      1.80120         0.001013      0.000520     -0.000520
      7.20482      0.00000      3.60241         0.000039      0.000000      0.000251
      7.20482      1.80121      5.40361        -0.000219      0.000094     -0.000000
      9.00602      7.20482      1.80120         0.000431      0.000564      0.000217
      9.00602      9.00602      3.60241         0.000431     -0.000217     -0.000564
      9.00602      0.00000      5.40361         0.000139      0.000000      0.000000
      0.00000      7.20482      3.60241        -0.000068     -0.000141      0.000141
      0.00000      9.00602      5.40361        -0.000154     -0.000124      0.000000
      1.80121      7.20482      5.40361        -0.000073     -0.000165     -0.000000
      7.20482      7.20482      7.20482        -0.000443     -0.000275     -0.000275
      7.20482      9.00602      9.00602         0.001013      0.000520      0.000520
      7.20482      0.00000      0.00000         0.003694     -0.000000     -0.000000
      7.20482      1.80120      1.80120         0.001013     -0.000520     -0.000520
      7.20482      3.60241      3.60241        -0.000443      0.000275      0.000275
      7.20482      5.40361      5.40361        -0.000046     -0.000000      0.000000
      9.00602      7.20482      9.00602         0.000431      0.000564     -0.000217
      9.00602      9.00602      0.00000         0.016817      0.019403      0.000000
      9.00602      0.00000      1.80120         0.016817     -0.000000     -0.019403
      9.00602      1.80120      3.60241         0.000431      0.000217     -0.000564
      9.00602      3.60241      5.40361        -0.000200      0.000159     -0.000000
      0.00000      7.20482      0.00000         0.000152      0.000049     -0.000000
      0.00000      9.00602      1.80120        -0.003638     -0.000022      0.000022
      0.00000      0.00000      3.60241         0.000152     -0.000000     -0.000049
      0.00000      1.80121      5.40361        -0.000154      0.000124     -0.000000
      1.80121      7.20482      1.80120         0.000501     -0.000737     -0.000075
      1.80121      9.00602      3.60241         0.000501      0.000075      0.000737
      1.80121      0.00000      5.40361         0.000265     -0.000000     -0.000000
      3.60241      7.20482      3.60241        -0.000266     -0.000018      0.000018
      3.60241      9.00602      5.40361        -0.000011     -0.000142      0.000000
      5.40361      7.20482      5.40361         0.000065     -0.000147      0.000000
      7.20482      0.00000      7.20482         0.000039     -0.000000     -0.000251
      7.20482      1.80121      9.00602         0.001013     -0.000520      0.000520
      7.20482      3.60241      0.00000         0.000039      0.000251      0.000000
      7.20482      5.40361      1.80120        -0.000219      0.000000      0.000094
      9.00602      9.00602      7.20482         0.000431     -0.000217      0.000564
      9.00602      0.00000      9.00602         0.016817      0.000000      0.019403
      9.00602      1.80120      0.00000         0.016817     -0.019403     -0.000000
      9.00602      3.60241      1.80120         0.000431     -0.000564      0.000217
      9.00602      5.40361      3.60241        -0.000200      0.000000      0.000159
      0.00000      7.20482      7.20482        -0.000068     -0.000141     -0.000141
      0.00000      9.00602      9.00602        -0.003638     -0.000022     -0.000022
      0.02000      0.00000      0.00000        -0.139715     -0.000000     -0.000000
      0.00000      1.80120      1.80120        -0.003638      0.000022      0.000022
      0.00000      3.60241      3.60241        -0.000068      0.000141      0.000141
      0.00000      5.40361      5.40361         0.000112     -0.000000      0.000000
      1.80121      7.20482      9.00602         0.000501     -0.000737      0.000075
      1.80121      9.00602      0.00000         0.018102     -0.021293     -0.000000
      1.80120      0.00000      1.80120         0.018102      0.000000      0.021293
      1.80121      1.80120      3.60241         0.000501     -0.000075      0.000737
      1.80121      3.60241      5.40361        -0.000073      0.000165      0.000000
      3.60241      7.20482      0.00000         0.000149     -0.000025     -0.000000
      3.60241      9.00602      1.80120         0.001027     -0.000701      0.000701
      3.60241      0.00000      3.60241         0.000149      0.000000      0.000025
      3.60241      1.80121      5.40361        -0.000011      0.000142      0.000000
      5.40361      7.20482      1.80120        -0.000296     -0.000160      0.000115
      5.40361      9.00602      3.60241        -0.000296     -0.000115      0.000160
[...]
      3.60241      1.80121      9.00602         0.001027      0.000701     -0.000701
      3.60241      3.60241      0.00000         0.000149      0.000025     -0.000000
      3.60241      5.40361      1.80120        -0.000011      0.000000      0.000142
      5.40361      9.00602      7.20482        -0.000296     -0.000115     -0.000160
      5.40361      0.00000      9.00602        -0.000941     -0.000000     -0.000105
      5.40361      1.80120      0.00000        -0.000941      0.000105     -0.000000
      5.40361      3.60241      1.80120        -0.000296      0.000160      0.000115
      5.40361      5.40361      3.60241         0.000065      0.000000      0.000147
      1.80121      5.40361      7.20482        -0.000073     -0.000000     -0.000165
      3.60241      3.60241      7.20482        -0.000266      0.000018     -0.000018
      3.60241      5.40361      9.00602        -0.000011     -0.000000     -0.000142
      5.40361      1.80121      7.20482        -0.000296      0.000115     -0.000160
      5.40361      3.60241      9.00602        -0.000296      0.000160     -0.000115
      5.40361      5.40361      0.00000         0.000482     -0.000000      0.000000
      5.40361      5.40361      7.20482         0.000065     -0.000000     -0.000147
    total drift:                                0.000584      0.000000      0.000046

 mean value of Nose-termostat <S>:     1.000 mean value of <T> :     0.000
 mean temperature <T/S>/<1/S>  :     0.000