 vasp.4.6.28 25Jul05 complex
 executed on             LinuxIFC date 2016.01.16  05:01:28

 INCAR:
 POTCAR:   PAW_PBE Cu 05Jan2001
 POTCAR:   PAW_PBE Cu 05Jan2001
   VRHFIN =Cu: d10 p1

   TITEL  = PAW_PBE Cu 05Jan2001
   POMASS =   63.546; ZVAL   =   11.000    mass and valenz
   ENMAX  =  273.214; ENMIN  =  204.910 eV
   QCUT   =   -4.481; QGAM   =    8.962    optimization parameters

   Description
     l     E      TYP  RCUT    TYP  RCUT
     2   .000     23  2.300
     2   .000     23  2.300
     0   .000     23  2.300
     0   .000     23  2.300
     1  -.200     23  2.300
     1   .000     23  2.300
     3   .000      7   .000

 PAW_PBE Cu 05Jan2001                   :

 POSCAR: Cu
  positions in direct lattice
  velocities in cartesian coordinates

 ion  position               nearest neighbor table
   1  0.250  0.250  0.000-  28 2.57  26 2.57  18 2.57  22 2.57  11 2.57  15 2.57  13 2.57   9 2.57
                            25 2.57  27 2.57  21 2.57  17 2.57
   2  0.750  0.250  0.000-  26 2.57  28 2.57  18 2.57  22 2.57  27 2.57  25 2.57  10 2.57  14 2.57
                            12 2.57  16 2.57  21 2.57  17 2.57
   3  0.250  0.750  0.000-  19 2.57  23 2.57  27 2.57  25 2.57  26 2.57  28 2.57  11 2.57  15 2.57
                            13 2.57   9 2.57  20 2.57  24 2.57
   4  0.750  0.750  0.000-  19 2.57  23 2.57  28 2.57  26 2.57  25 2.57  27 2.57  10 2.57  14 2.57
                            12 2.57  16 2.57  20 2.57  24 2.57
   5  0.250  0.250  0.500-  29 2.57  31 2.57  17 2.57  21 2.57  18 2.57  22 2.57  32 2.57  13 2.57
                             9 2.57  15 2.57  11 2.57  30 2.57
   6  0.750  0.250  0.500-  31 2.57  29 2.57  18 2.57  22 2.57  21 2.57  17 2.57  10 2.57  14 2.57
                            12 2.57  16 2.57  30 2.57  32 2.57
   7  0.250  0.750  0.500-  31 2.57  29 2.57  19 2.57  23 2.57  30 2.57  32 2.57  20 2.57  24 2.57
                             9 2.57  13 2.57  11 2.57  15 2.57
   8  0.750  0.750  0.500-  32 2.57  30 2.57  20 2.57  24 2.57  29 2.57  31 2.57  23 2.57  19 2.57
                            10 2.57  14 2.57  12 2.57  16 2.57
   9  0.250  0.000  0.250-  20 2.57  30 2.57  17 2.57  25 2.57  18 2.57  26 2.57  19 2.57  29 2.57
                             1 2.57   5 2.57   3 2.57   7 2.57
  10  0.750  1.000  0.250-  19 2.57  29 2.57  18 2.57  26 2.57  17 2.57  25 2.57  20 2.57  30 2.57
                             8 2.57   4 2.57   6 2.57   2 2.57
  11  0.250  0.500  0.250-  20 2.57  32 2.57  17 2.57  27 2.57  18 2.57  28 2.57  19 2.57  31 2.57
                             1 2.57   5 2.57   3 2.57   7 2.57
  12  0.750  0.500  0.250-  19 2.57  31 2.57  18 2.57  28 2.57  17 2.57  27 2.57  20 2.57  32 2.57
                             8 2.57   4 2.57   6 2.57   2 2.57
  13  0.250  0.000  0.750-  24 2.57  30 2.57  21 2.57  25 2.57  22 2.57  26 2.57  23 2.57  29 2.57
                             1 2.57   5 2.57   3 2.57   7 2.57
  14  0.750  1.000  0.750-  23 2.57  29 2.57  22 2.57  26 2.57  21 2.57  25 2.57  24 2.57  30 2.57
                             8 2.57   4 2.57   6 2.57   2 2.57
  15  0.250  0.500  0.750-  24 2.57  32 2.57  21 2.57  27 2.57  22 2.57  28 2.57  23 2.57  31 2.57
                             1 2.57   5 2.57   3 2.57   7 2.57
  16  0.750  0.500  0.750-  23 2.57  31 2.57  22 2.57  28 2.57  21 2.57  27 2.57  24 2.57  32 2.57
                             8 2.57   4 2.57   6 2.57   2 2.57
  17  0.000  0.250  0.250-  27 2.57  25 2.57  11 2.57   9 2.57   5 2.57  10 2.57  12 2.57   6 2.57
                             2 2.57   1 2.57  31 2.57  29 2.57
  18  0.500  0.250  0.250-   1 2.57   2 2.57   6 2.57  12 2.57  10 2.57  30 2.57  32 2.57   5 2.57
                             9 2.57  11 2.57  26 2.57  28 2.57
  19  0.000  0.750  0.250-   4 2.57   3 2.57  12 2.57  10 2.57   7 2.57   8 2.57   9 2.57  11 2.57
                            31 2.57  29 2.57  27 2.57  25 2.57
  20  0.500  0.750  0.250-  11 2.57   9 2.57   8 2.57  26 2.57  28 2.57  30 2.57  32 2.57   7 2.57
                            10 2.57  12 2.57   3 2.57   4 2.57
  21  0.000  0.250  0.750-  27 2.57  25 2.57  15 2.57  13 2.57   5 2.57  14 2.57  16 2.57   6 2.57
                             2 2.57   1 2.57  31 2.57  29 2.57
  22  0.500  0.250  0.750-   1 2.57   2 2.57   6 2.57  16 2.57  14 2.57  30 2.57  32 2.57   5 2.57
                            13 2.57  15 2.57  26 2.57  28 2.57
  23  0.000  0.750  0.750-   4 2.57   3 2.57  16 2.57  14 2.57   7 2.57   8 2.57  13 2.57  15 2.57
                            31 2.57  29 2.57  27 2.57  25 2.57
  24  0.500  0.750  0.750-  15 2.57  13 2.57   8 2.57  26 2.57  28 2.57  30 2.57  32 2.57   7 2.57
                            14 2.57  16 2.57   3 2.57   4 2.57
  25  0.000  0.000  0.000-  17 2.57  21 2.57   9 2.57  13 2.57   3 2.57  10 2.57  14 2.57   4 2.57
                             2 2.57   1 2.57  19 2.57  23 2.57
  26  0.500  1.000  0.000-   1 2.57   2 2.57   4 2.57  10 2.57  14 2.57  20 2.57  24 2.57   3 2.57
                            13 2.57   9 2.57  22 2.57  18 2.57
  27  0.000  0.500  0.000-  17 2.57  21 2.57  11 2.57  15 2.57   3 2.57  12 2.57  16 2.57   4 2.57
                             2 2.57   1 2.57  19 2.57  23 2.57
  28  0.500  0.500  0.000-   1 2.57   2 2.57   4 2.57  12 2.57  16 2.57  20 2.57  24 2.57   3 2.57
                            15 2.57  11 2.57  22 2.57  18 2.57
  29  0.000  0.000  0.500-   6 2.57   5 2.57  10 2.57  14 2.57   7 2.57   8 2.57  13 2.57   9 2.57
                            19 2.57  23 2.57  21 2.57  17 2.57
  30  0.500  1.000  0.500-   9 2.57  13 2.57   8 2.57  18 2.57  22 2.57  20 2.57  24 2.57   7 2.57
                            10 2.57  14 2.57   5 2.57   6 2.57
  31  0.000  0.500  0.500-   6 2.57   5 2.57   7 2.57  12 2.57  16 2.57   8 2.57  15 2.57  11 2.57
                            19 2.57  23 2.57  21 2.57  17 2.57
  32  0.500  0.500  0.500-  11 2.57  15 2.57   8 2.57  18 2.57  22 2.57  20 2.57  24 2.57   7 2.57
                            12 2.57  16 2.57   5 2.57   6 2.57

  LATTYP: Found a simple tetragonal cell.
 ALAT       =     7.2725965128
 C/A-ratio  =     0.9999816437

  Lattice vectors:

 A1 = (  -0.0000011467,   7.2725965128,   0.0000000000)
 A2 = (   0.0000000000,   0.0000000000,  -7.2726019137)
 A3 = (  -7.2724630151,   0.0000011707,   0.0000000000)
 Subroutine PRICEL returns:
 Original cell was already a primitive cell.

Analysis of symmetry for initial positions (statically):

 Routine SETGRP: Setting up the symmetry group for a
 simple tetragonal supercell.

 Subroutine GETGRP returns: Found  2 space group operations
 (whereof  2 operations were pure point group operations)
 out of a pool of 16 trial point group operations.

The static configuration has the point symmetry C_1h.

Analysis of symmetry for dynamics (positions and initial velocities):

 Subroutine DYNSYM returns: Found  2 space group operations
 (whereof  2 operations were pure point group operations)
 out of a pool of  2 trial space group operations
 (whereof  2 operations were pure point group operations)
 and found also     1 'primitive' translations

The dynamic configuration has the point symmetry C_1h.

 KPOINTS: Automatic mesh

Automatic generation of k-mesh.
 generate k-points for:   7   7   7

 Subroutine IBZKPT returns following result:

 Found    100 irreducible k-points:

 Following reciprocal coordinates:
            Coordinates               Weight
  0.000000  0.000000  0.000000      1.000000
  0.142857  0.000000  0.000000      2.000000
  0.285714 -0.000000  0.000000      2.000000
  0.428571  0.000000  0.000000      2.000000
 -0.000000  0.142857  0.000000      2.000000
  0.142857  0.142857  0.000000      2.000000
  0.285714  0.142857  0.000000      2.000000
  0.428571  0.142857  0.000000      2.000000
 -0.428571  0.142857  0.000000      2.000000
 -0.285714  0.142857  0.000000      2.000000
 -0.142857  0.142857  0.000000      2.000000
 -0.000000  0.285714  0.000000      2.000000
  0.142857  0.285714  0.000000      2.000000
  0.285714  0.285714  0.000000      2.000000
  0.428571  0.285714  0.000000      2.000000
 -0.428571  0.285714  0.000000      2.000000
 -0.285714  0.285714  0.000000      2.000000
 -0.142857  0.285714  0.000000      2.000000
 -0.000000  0.428571  0.000000      2.000000
  0.142857  0.428571  0.000000      2.000000
  0.285714  0.428571  0.000000      2.000000
  0.428571  0.428571  0.000000      2.000000
 -0.428571  0.428571  0.000000      2.000000
 -0.285714  0.428571  0.000000      2.000000
 -0.142857  0.428571  0.000000      2.000000
  0.000000  0.000000  0.142857      2.000000
  0.142857  0.000000  0.142857      4.000000
  0.285714 -0.000000  0.142857      4.000000
  0.428571  0.000000  0.142857      4.000000
 -0.000000  0.142857  0.142857      4.000000
  0.142857  0.142857  0.142857      4.000000
  0.285714  0.142857  0.142857      4.000000
  0.428571  0.142857  0.142857      4.000000
 -0.428571  0.142857  0.142857      4.000000
 -0.285714  0.142857  0.142857      4.000000
 -0.142857  0.142857  0.142857      4.000000
 -0.000000  0.285714  0.142857      4.000000
  0.142857  0.285714  0.142857      4.000000
  0.285714  0.285714  0.142857      4.000000
  0.428571  0.285714  0.142857      4.000000
 -0.428571  0.285714  0.142857      4.000000
 -0.285714  0.285714  0.142857      4.000000
 -0.142857  0.285714  0.142857      4.000000
 -0.000000  0.428571  0.142857      4.000000
  0.142857  0.428571  0.142857      4.000000
  0.285714  0.428571  0.142857      4.000000
  0.428571  0.428571  0.142857      4.000000
 -0.428571  0.428571  0.142857      4.000000
 -0.285714  0.428571  0.142857      4.000000
 -0.142857  0.428571  0.142857      4.000000
  0.000000  0.000000  0.285714      2.000000
  0.142857  0.000000  0.285714      4.000000
  0.285714 -0.000000  0.285714      4.000000
  0.428571  0.000000  0.285714      4.000000
 -0.000000  0.142857  0.285714      4.000000
  0.142857  0.142857  0.285714      4.000000
  0.285714  0.142857  0.285714      4.000000
  0.428571  0.142857  0.285714      4.000000
 -0.428571  0.142857  0.285714      4.000000
 -0.285714  0.142857  0.285714      4.000000
[...]
 -0.142857  0.142857  0.428571      4.000000
 -0.000000  0.285714  0.428571      4.000000
  0.142857  0.285714  0.428571      4.000000
  0.285714  0.285714  0.428571      4.000000
  0.428571  0.285714  0.428571      4.000000
 -0.428571  0.285714  0.428571      4.000000
 -0.285714  0.285714  0.428571      4.000000
 -0.142857  0.285714  0.428571      4.000000
 -0.000000  0.428571  0.428571      4.000000
  0.142857  0.428571  0.428571      4.000000
  0.285714  0.428571  0.428571      4.000000
  0.428571  0.428571  0.428571      4.000000
 -0.428571  0.428571  0.428571      4.000000
 -0.285714  0.428571  0.428571      4.000000
 -0.142857  0.428571  0.428571      4.000000

 Following cartesian coordinates:
            Coordinates               Weight
  0.000000  0.000000  0.000000      1.000000
  0.019644  0.000000  0.000000      2.000000
  0.039287  0.000000  0.000000      2.000000
  0.058931  0.000000  0.000000      2.000000
  0.000000  0.019643  0.000000      2.000000
  0.019644  0.019643  0.000000      2.000000
  0.039287  0.019643  0.000000      2.000000
[...]
      3.63649      5.45445      1.81816         0.000075      0.000000     -0.000074
      0.00030      1.81815      5.45450        -0.000063     -0.000000     -0.000147
      3.63653      1.81815      5.45440        -0.000066     -0.000000      0.000148
      0.00026      5.45445      5.45446         0.000073      0.000000     -0.000074
      3.63649      5.45445      5.45444         0.000075      0.000000      0.000074
      0.00030      0.00005      0.00000        -0.000064     -0.000147      0.000000
      3.63653      7.27255      0.00000        -0.000065      0.000147      0.000000
      0.00030      3.63625      0.00000        -0.000064      0.000147      0.000000
      3.63653      3.63635      0.00000        -0.000065     -0.000147      0.000000
      0.00026      0.00001      3.63630         0.000073     -0.000074      0.000000
      3.63649      7.27258      3.63630         0.000075      0.000074      0.000000
      0.00026      3.63628      3.63630         0.000074      0.000074      0.000000
      3.63649      3.63631      3.63630         0.000075     -0.000074      0.000000
    total drift:                               -0.000345      0.000000     -0.000000

[...]

 d Force = 0.1912985E-07[ 0.139E-07, 0.244E-07]  d Energy = 0.2690067E-06-0.250E-06
 d Force = 0.8314717E-06[ 0.712E-06, 0.951E-06]  d Ewald  = 0.1899109E+00-0.190E+00

[...]

 Steepest descent step on ions:
 trial-energy change:   -0.000000  1 .order   -0.000000   -0.000000   -0.000000
  (g-gl).g = 0.893E-07      g.g   = 0.893E-07  gl.gl    = 0.000E+00
 g(Force)  = 0.244E-07   g(Stress)= 0.649E-07 ortho     = 0.000E+00
 gamma     =   0.00000
 trial     =   1.00000
 opt step  =   4.00000  (harmonic =   4.00000) maximal distance =0.00003690
 next E    =  -119.038621   (d E  =  -0.00000)

[...]

 eigenvalue-minimisations  : 22968
 total energy-change (2. order) :-0.1538865E-07  ( 0.8070986E-10)
 number of electron  351.9999998 magnetization
 augmentation part   230.1595744 magnetization

[...]

 eigenvalue-minimisations  : 22968
 total energy-change (2. order) : 0.4947651E-09  ( 0.1085860E-09)
 number of electron  351.9999998 magnetization
 augmentation part   230.1595744 magnetization

[...]

 d Force = 0.3032636E-07[ 0.191E-07, 0.416E-07]  d Energy =-0.9033101E-07 0.121E-06
 d Force = 0.1056927E-05[-0.212E-07, 0.214E-05]  d Ewald  = 0.5697443E+00-0.570E+00

[...]

 eigenvalue-minimisations  : 57120
 total energy-change (2. order) : 0.5655093E-06  (-0.1042956E-07)
 number of electron  351.9999998 magnetization
 augmentation part   230.1599636 magnetization

[...]

 eigenvalue-minimisations  : 22968
 total energy-change (2. order) :-0.8907955E-07  (-0.5309684E-10)
 number of electron  351.9999998 magnetization
 augmentation part   230.1598527 magnetization

 Broyden mixing:
  rms(total) = 0.85045E-05    rms(broyden)= 0.85025E-05
  rms(prec ) = 0.12461E-04
  weight for this iteration     100.00

 eigenvalues of (default mixing * dielectric matrix)
  average eigenvalue GAMMA=   1.2228
  2.6971  2.4930  1.0016  1.0016  0.6627  0.4097  0.2942

[...]

----------------------------------------- Iteration    4(   9)  ---------------------------------------

 eigenvalue-minimisations  : 22968
 total energy-change (2. order) : 0.9371433E-08  ( 0.7701647E-10)
 number of electron  351.9999998 magnetization
 augmentation part   230.1598527 magnetization

 Free energy of the ion-electron system (eV)
  alpha Z        PSCENC =      3401.38251999
  Ewald energy   TEWEN  =    -35150.79222200
  -1/2 Hartree   DENC   =     -9844.35892856
  -V(xc)+E(xc)   XCENC  =      1368.73699394
  PAW double counting   =     35062.32583124   -39692.81433825
  entropy T*S    EENTRO =        -0.00104223
  eigenvalues    EBANDS =       225.22399982
  atomic energy  EATOM  =     44511.25856501
  free energy    TOTEN  =      -119.03862105 eV

  energy without entropy =     -119.03757882  energy(sigma->0) =     -119.03809993

 average (electrostatic) potential at core
  the test charge radii are     1.0053
  (the norm of the test charge is              1.0000)
       1 -40.0410       2 -40.0410       3 -40.0410       4 -40.0410       5 -40.0410
       6 -40.0410       7 -40.0410       8 -40.0410       9 -40.0410      10 -40.0410
      11 -40.0410      12 -40.0410      13 -40.0410      14 -40.0410      15 -40.0410
      16 -40.0410      17 -40.0410      18 -40.0410      19 -40.0410      20 -40.0410
      21 -40.0410      22 -40.0410      23 -40.0410      24 -40.0410      25 -40.0410
      26 -40.0410      27 -40.0410      28 -40.0410      29 -40.0410      30 -40.0410
      31 -40.0410      32 -40.0410

 E-fermi :   3.6403     XC(G=0): -12.6981     alpha+bet : -9.4629
   add alpha+bet to get absolut eigen values

[...]

 k-point 100 :      -0.1429    0.4286    0.4286
  band No.  band energies     occupation
      1      -4.4407      2.00000
      2      -4.0424      2.00000
      3      -4.0424      2.00000
      4      -3.6573      2.00000
      5      -2.6253      2.00000
      6      -2.3438      2.00000
      7      -2.3438      2.00000
      8      -2.1183      2.00000
      9      -1.5518      2.00000
     10      -1.3944      2.00000
     11      -1.3944      2.00000
     12      -1.3181      2.00000
     13      -1.0209      2.00000
     14      -1.0209      2.00000
     15      -0.9064      2.00000
     16      -0.9064      2.00000
     17      -0.8219      2.00000
     18      -0.8219      2.00000
     19      -0.7695      2.00000
     20      -0.7695      2.00000
     21      -0.7261      2.00000
     22      -0.7261      2.00000
     23      -0.7082      2.00000
     24      -0.6422      2.00000
     25      -0.6422      2.00000
     26      -0.5886      2.00000
     27      -0.5886      2.00000
     28      -0.5764      2.00000
     29      -0.5764      2.00000
     30      -0.4758      2.00000
     31      -0.4687      2.00000
     32      -0.4687      2.00000
     33      -0.4253      2.00000
     34      -0.4203      2.00000
     35      -0.4203      2.00000
     36      -0.3393      2.00000
     37      -0.3393      2.00000
     38      -0.3302      2.00000
     39      -0.3302      2.00000
     40      -0.3168      2.00000
     41      -0.3168      2.00000
     42      -0.2682      2.00000
     43      -0.2349      2.00000
     44      -0.2349      2.00000
     45      -0.0556      2.00000
     46      -0.0556      2.00000
     47       0.0371      2.00000
     48       0.0565      2.00000
     49       0.0565      2.00000
     50       0.0820      2.00000
     51       0.0820      2.00000
     52       0.1682      2.00000
     53       0.1682      2.00000
     54       0.1894      2.00000
     55       0.1894      2.00000
     56       0.2475      2.00000
     57       0.3175      2.00000
     58       0.3280      2.00000
     59       0.3405      2.00000
     60       0.3405      2.00000
[...]
    202       9.4867      0.00000
    203       9.4867      0.00000
    204      10.5791      0.00000
    205      10.6717      0.00000
    206      11.7885      0.00000
    207      11.7885      0.00000
    208      11.7940      0.00000
    209      12.0448      0.00000
    210      12.0448      0.00000
    211      12.2800      0.00000
    212      12.3278      0.00000
    213      12.6168      0.00000
    214      12.6169      0.00000
    215      12.9216      0.00000
    216      13.0897      0.00000

 soft charge-density along one line, spin component           1
         0         1         2         3         4         5         6         7         8         9
 total charge-density along one line

------------------------ aborting loop because EDIFF is reached ----------------------------------------

 d Force =-0.2470217E-07[-0.357E-07,-0.137E-07]  d Energy = 0.9342330E-07-0.118E-06
 d Force =-0.5447052E-06[-0.110E-05, 0.153E-07]  d Ewald  =-0.4106010E+00 0.411E+00

  FREE ENERGIE OF THE ION-ELECTRON SYSTEM (eV)
  free  energy   TOTEN  =      -119.038621 eV

  energy  without entropy=     -119.037579  energy(sigma->0) =     -119.038100

  FORCE on cell =-STRESS in cart. coord.  units (eV/reduce length):
  Direction    X        Y        Z        XY       YZ       ZX
  Alpha Z   3401.38   3401.38   3401.38
  Ewald   -11716.95 -11716.99 -11716.99      0.00      0.00      0.00
  Hartree   3281.46   3281.45   3281.45      0.00     -0.00     -0.00
  E(xc)    -2004.38  -2004.38  -2004.38      0.00      0.00     -0.00
  Local     3887.14   3887.18   3887.18     -0.00     -0.00      0.00
  n-local  -1171.72  -1171.72  -1171.72      0.00      1.01      0.06
  augment   1809.19   1809.19   1809.19     -0.00     -0.00     -0.00
  Kinetic   2513.89   2513.90   2513.90     -0.00     -1.10     -0.18
  Total        0.01      0.01      0.01     -0.00      0.00      0.00
  in kB        0.03      0.04      0.04     -0.00      0.00      0.00

 VOLUME and BASIS-vectors are now :
  energy-cutoff  :      500.00
  volume of cell :      384.63
      direct lattice vectors                 reciprocal lattice vectors
     7.272356206 -0.000001368  0.000000000     0.137507016  0.000000033  0.000000000
    -0.000001756  7.272537568  0.000000000     0.000000026  0.137503587  0.000000000
     0.000000000  0.000000000  7.272551015     0.000000000  0.000000000  0.137503332

  length of vectors
     7.272356206  7.272537568  7.272551015     0.137507016  0.137503587  0.137503332

 FORCES acting on ions
    electron-ion (+dipol)            ewald-force                    non-local-force                 convergence-correction
   0.535E-02 0.145E-04 0.359E-07   -.557E-02 -.133E-04 -.262E-13   0.870E-05 0.205E-06 0.000E+00   -.409E-04 -.157E-05 -.145E-11
   -.248E-02 -.735E-04 -.364E-07   0.262E-02 0.750E-04 0.463E-13   -.448E-04 0.188E-06 0.000E+00   0.372E-04 -.121E-05 -.223E-11
   -.222E-02 -.161E-04 -.157E-07   0.233E-02 0.149E-04 0.301E-13   -.246E-04 -.133E-06 0.000E+00   -.124E-04 0.155E-05 -.121E-11
   0.302E-02 0.768E-04 0.153E-07   -.312E-02 -.783E-04 0.282E-13   -.196E-04 -.152E-06 0.000E+00   0.144E-04 0.118E-05 -.213E-11
   -.235E-02 -.857E-05 -.156E-07   0.246E-02 0.114E-04 -.877E-13   -.245E-04 0.374E-06 0.000E+00   -.126E-04 -.321E-05 0.129E-11
   0.316E-02 -.986E-04 0.154E-07   -.326E-02 0.102E-03 -.712E-13   -.197E-04 0.379E-06 0.000E+00   0.146E-04 -.283E-05 0.203E-11
   -.574E-02 0.872E-05 -.828E-08   0.582E-02 -.115E-04 0.993E-13   0.304E-04 -.357E-06 0.000E+00   0.170E-04 0.320E-05 0.108E-11
   -.128E-02 0.102E-03 0.819E-08   0.130E-02 -.106E-03 0.185E-13   0.192E-04 -.374E-06 0.000E+00   -.199E-04 0.280E-05 0.218E-11
   0.958E-04 -.262E-04 0.843E-04   -.886E-04 0.238E-04 -.832E-04   -.175E-04 -.454E-06 0.146E-06   -.969E-05 0.215E-05 -.129E-05
   0.219E-03 -.152E-03 -.542E-04   -.232E-03 0.152E-03 0.544E-04   -.916E-05 -.343E-06 0.768E-07   0.114E-04 0.192E-05 -.298E-06
   0.157E-04 0.264E-04 0.604E-04   -.784E-05 -.239E-04 -.577E-04   -.174E-04 0.421E-06 0.351E-06   -.968E-05 -.212E-05 -.293E-05
   0.299E-03 0.149E-03 -.796E-04   -.312E-03 -.148E-03 0.814E-04   -.922E-05 0.353E-06 0.262E-06   0.114E-04 -.190E-05 -.192E-05
   0.958E-04 -.262E-04 -.843E-04   -.886E-04 0.238E-04 0.832E-04   -.175E-04 -.454E-06 -.146E-06   -.969E-05 0.215E-05 0.129E-05
   0.219E-03 -.152E-03 0.542E-04   -.232E-03 0.152E-03 -.544E-04   -.916E-05 -.343E-06 -.768E-07   0.114E-04 0.192E-05 0.298E-06
   0.157E-04 0.264E-04 -.604E-04   -.784E-05 -.239E-04 0.577E-04   -.174E-04 0.421E-06 -.351E-06   -.968E-05 -.212E-05 0.293E-05
   0.299E-03 0.149E-03 0.796E-04   -.312E-03 -.148E-03 -.814E-04   -.922E-05 0.353E-06 -.262E-06   0.114E-04 -.190E-05 0.192E-05
   0.179E-02 -.203E-05 -.332E-02   -.181E-02 0.387E-05 0.345E-02   -.287E-04 0.274E-06 -.443E-06   0.535E-06 -.220E-05 -.156E-04
   0.181E-02 -.814E-04 0.338E-02   -.183E-02 0.838E-04 -.350E-02   -.290E-04 0.302E-06 0.655E-06   0.286E-05 -.220E-05 0.132E-04
   -.169E-02 0.303E-05 -.333E-03   0.171E-02 -.488E-05 0.363E-03   0.595E-05 -.261E-06 0.822E-05   -.370E-05 0.220E-05 -.184E-04
   -.159E-02 0.842E-04 0.315E-03   0.161E-02 -.867E-04 -.341E-03   0.542E-05 -.293E-06 -.778E-05   -.997E-06 0.217E-05 0.141E-04
   0.179E-02 -.203E-05 0.332E-02   -.181E-02 0.387E-05 -.345E-02   -.287E-04 0.274E-06 0.443E-06   0.535E-06 -.220E-05 0.156E-04
   0.181E-02 -.814E-04 -.338E-02   -.183E-02 0.838E-04 0.350E-02   -.290E-04 0.302E-06 -.655E-06   0.286E-05 -.220E-05 -.132E-04
   -.169E-02 0.303E-05 0.333E-03   0.171E-02 -.488E-05 -.363E-03   0.595E-05 -.261E-06 -.822E-05   -.370E-05 0.220E-05 0.184E-04
   -.159E-02 0.842E-04 -.315E-03   0.161E-02 -.867E-04 0.341E-03   0.542E-05 -.293E-06 0.778E-05   -.997E-06 0.217E-05 -.141E-04
   0.162E-02 0.330E-02 0.184E-07   -.164E-02 -.343E-02 0.195E-13   -.287E-04 0.258E-06 0.000E+00   0.109E-05 0.160E-04 -.160E-11
   0.199E-02 -.353E-02 -.189E-07   -.201E-02 0.366E-02 0.315E-13   -.290E-04 -.815E-06 0.000E+00   0.230E-05 -.129E-04 -.108E-11
   0.171E-02 -.330E-02 -.192E-07   -.173E-02 0.343E-02 -.178E-13   -.287E-04 -.242E-06 0.000E+00   0.762E-06 -.161E-04 -.199E-11
   0.189E-02 0.353E-02 0.188E-07   -.192E-02 -.365E-02 0.143E-12   -.290E-04 0.874E-06 0.000E+00   0.266E-05 0.128E-04 -.202E-11
   -.160E-02 0.312E-03 0.372E-08   0.163E-02 -.341E-03 0.474E-13   0.597E-05 -.845E-05 0.000E+00   -.389E-05 0.189E-04 0.162E-11
   -.167E-02 -.469E-03 -.389E-08   0.170E-02 0.495E-03 0.802E-13   0.543E-05 0.764E-05 0.000E+00   -.781E-06 -.137E-04 0.975E-12
   -.151E-02 -.314E-03 -.353E-08   0.154E-02 0.344E-03 0.936E-13   0.594E-05 0.845E-05 0.000E+00   -.426E-05 -.188E-04 0.182E-11
   -.176E-02 0.467E-03 0.345E-08   0.179E-02 -.493E-03 0.112E-12   0.542E-05 -.765E-05 0.000E+00   -.403E-06 0.137E-04 0.178E-11
   0.223E-04 -.579E-07 -.461E-08   -.193E-12 0.182E-13 0.605E-12   -.367E-03 0.193E-06 0.000E+00   -.769E-06 -.139E-06 -.308E-11

 POSITION                                       TOTAL-FORCE (eV/Angst)
      1.81845      1.81813      0.00000        -0.000238     -0.000000      0.000000
      5.45450      1.81813      0.00000         0.000143      0.000000      0.000000
      1.81834      5.45440      0.00000         0.000083      0.000000      0.000000
      5.45458      5.45440      0.00000        -0.000093     -0.000000      0.000000
      1.81834      1.81813      3.63628         0.000084     -0.000000      0.000000
      5.45458      1.81813      3.63628        -0.000094      0.000001      0.000000
      1.81833      5.45440      3.63628         0.000134      0.000000      0.000000
      5.45454      5.45440      3.63628         0.000031     -0.000001      0.000000
      1.81837     -0.00000      1.81814        -0.000009     -0.000001     -0.000000
      5.45455      7.27254      1.81814        -0.000000      0.000001     -0.000000
      1.81837      3.63627      1.81814        -0.000008      0.000001      0.000000
      5.45455      3.63627      1.81814        -0.000001     -0.000001      0.000000
      1.81837     -0.00000      5.45441        -0.000009     -0.000001      0.000000
      5.45455      7.27254      5.45441        -0.000000      0.000001      0.000000
      1.81837      3.63627      5.45441        -0.000008      0.000001     -0.000000
      5.45455      3.63627      5.45441        -0.000001     -0.000001     -0.000000
      0.00029      1.81813      1.81810        -0.000040     -0.000000      0.000110
      3.63647      1.81813      1.81817        -0.000041      0.000001     -0.000110
      0.00027      5.45440      1.81813         0.000038      0.000000      0.000019
      3.63645      5.45440      1.81814         0.000039     -0.000001     -0.000019
      0.00029      1.81813      5.45445        -0.000040     -0.000000     -0.000110
      3.63647      1.81813      5.45438        -0.000041      0.000001      0.000110
      0.00027      5.45440      5.45442         0.000038      0.000000     -0.000019
      3.63645      5.45440      5.45441         0.000039     -0.000001      0.000019
      0.00029      0.00003      0.00000        -0.000038     -0.000110      0.000000
      3.63647      7.27250      0.00000        -0.000042      0.000111      0.000000
      0.00029      3.63623      0.00000        -0.000039      0.000110      0.000000
      3.63647      3.63630      0.00000        -0.000041     -0.000111      0.000000
      0.00027      0.00001      3.63628         0.000038     -0.000019      0.000000
      3.63645     -0.00001      3.63628         0.000039      0.000020      0.000000
      0.00027      3.63626      3.63628         0.000037      0.000019      0.000000
      3.63645      3.63627      3.63628         0.000040     -0.000020      0.000000
    total drift:                               -0.000345     -0.000000     -0.000000

 reached required accuracy - stopping structural energy minimisation