 vasp.4.6.28 25Jul05 complex
 executed on             LinuxIFC date 2017.01.24  12:44:47

 INCAR:
 POTCAR:   PAW_PBE Ag 06Sep2000
 POTCAR:   PAW_PBE Ag 06Sep2000
   VRHFIN =Ag : s1 d10

   TITEL  = PAW_PBE Ag 06Sep2000
   POMASS =  107.868; ZVAL   =   11.000    mass and valenz
   ENMAX  =  249.846; ENMIN  =  187.385 eV
   QCUT   =   -4.285; QGAM   =    8.570    optimization parameters

   Description
     l     E      TYP  RCUT    TYP  RCUT
     2   .000     23  2.400
     2   .000     23  2.400
     0   .000     23  2.400
     0   .000     23  2.400
     1  -.200     23  2.400
     1  1.500     23  2.400
     3   .000      7   .000

 PAW_PBE Ag 06Sep2000                   :

 POSCAR: No title
  positions in direct lattice

 ion  position               nearest neighbor table
   1  0.750  0.750  0.500-   3 3.13   5 3.13  14 3.13  19 3.13  20 3.13  26 3.13  11 3.13   6 3.13
                            18 3.13  29 3.13  10 3.13   8 3.13
   2  0.750  0.750  0.000-   8 3.13  10 3.13  11 3.13  18 3.13  22 3.13  27 3.13  12 3.13  26 3.13
                             5 3.13  32 3.13   3 3.13  20 3.13
   3  0.750  0.000  0.250-   1 3.13   5 3.13   9 3.13  12 3.13  19 3.13  28 3.13  18 3.13   6 3.13
                            27 3.13  13 3.13   4 3.13   2 3.13
   4  0.750  0.250  0.500-   6 3.13   8 3.13  10 3.13  13 3.13  29 3.13  31 3.13  21 3.13  28 3.13
                            14 3.13  19 3.13   3 3.13  20 3.13
   5  0.000  0.750  0.250-   1 3.13   3 3.13  12 3.13  14 3.13  15 3.13  25 3.13   7 3.13  10 3.13
                            16 3.13   2 3.13  22 3.13   6 3.13
   6  0.000  0.000  0.500-   4 3.13   7 3.13   8 3.13  11 3.13  13 3.13  16 3.13   1 3.13   3 3.13
                            17 3.13  23 3.13  21 3.13   5 3.13
   7  0.250  0.750  0.500-   6 3.13  11 3.13  16 3.13  18 3.13  29 3.13  30 3.13  19 3.13  26 3.13
                             5 3.13  14 3.13  25 3.13  23 3.13
   8  0.750  0.000  0.750-   2 3.13   4 3.13   6 3.13  11 3.13  27 3.13  31 3.13  21 3.13  26 3.13
                            12 3.13  19 3.13   9 3.13   1 3.13
   9  0.750  0.250  0.000-   3 3.13  12 3.13  20 3.13  21 3.13  28 3.13  32 3.13  27 3.13  13 3.13
                            31 3.13  22 3.13  10 3.13   8 3.13
  10  0.750  0.500  0.250-   2 3.13   4 3.13  13 3.13  18 3.13  22 3.13  29 3.13  14 3.13  28 3.13
                             5 3.13  32 3.13   9 3.13   1 3.13
  11  0.000  0.750  0.750-   2 3.13   6 3.13   7 3.13   8 3.13  22 3.13  30 3.13  20 3.13   1 3.13
                            23 3.13  15 3.13  14 3.13  12 3.13
  12  0.000  0.000  0.000-   3 3.13   5 3.13   9 3.13  15 3.13  21 3.13  23 3.13  16 3.13   2 3.13
                             8 3.13  24 3.13  13 3.13  11 3.13
  13  0.000  0.250  0.250-   4 3.13   6 3.13  10 3.13  16 3.13  22 3.13  24 3.13  17 3.13   3 3.13
                             9 3.13  25 3.13  14 3.13  12 3.13
  14  0.000  0.500  0.500-   1 3.13   5 3.13  17 3.13  20 3.13  21 3.13  25 3.13   7 3.13  10 3.13
                             4 3.13  30 3.13  13 3.13  11 3.13
  15  0.250  0.750  0.000-   5 3.13  12 3.13  23 3.13  25 3.13  26 3.13  32 3.13  18 3.13  22 3.13
                            27 3.13  11 3.13  30 3.13  16 3.13
  16  0.250  0.000  0.250-   6 3.13   7 3.13  13 3.13  18 3.13  24 3.13  27 3.13  19 3.13   5 3.13
                            12 3.13  28 3.13  17 3.13  15 3.13
  17  0.250  0.250  0.500-  14 3.13  19 3.13  21 3.13  23 3.13  25 3.13  28 3.13   6 3.13  13 3.13
                            29 3.13  31 3.13  30 3.13  16 3.13
  18  0.500  0.750  0.250-   2 3.13   7 3.13  10 3.13  16 3.13  27 3.13  29 3.13   1 3.13  25 3.13
                             3 3.13  15 3.13  19 3.13  32 3.13
  19  0.500  0.000  0.500-   1 3.13   3 3.13  17 3.13  23 3.13  26 3.13  28 3.13   4 3.13   7 3.13
                             8 3.13  16 3.13  18 3.13  31 3.13
  20  0.750  0.500  0.750-   1 3.13   9 3.13  14 3.13  21 3.13  26 3.13  32 3.13  11 3.13  29 3.13
                            31 3.13  22 3.13   4 3.13   2 3.13
  21  0.000  0.250  0.750-   9 3.13  12 3.13  14 3.13  17 3.13  20 3.13  23 3.13   4 3.13   8 3.13
                            24 3.13  30 3.13  22 3.13   6 3.13
  22  0.000  0.500  0.000-   2 3.13  10 3.13  11 3.13  13 3.13  24 3.13  30 3.13  20 3.13   9 3.13
                            25 3.13  15 3.13  21 3.13   5 3.13
  23  0.250  0.000  0.750-  12 3.13  15 3.13  17 3.13  19 3.13  21 3.13  26 3.13   6 3.13  11 3.13
                            27 3.13  31 3.13  24 3.13   7 3.13
  24  0.250  0.250  0.000-  13 3.13  16 3.13  22 3.13  27 3.13  30 3.13  31 3.13  28 3.13  12 3.13
                            21 3.13  32 3.13  25 3.13  23 3.13
  25  0.250  0.500  0.250-   5 3.13  14 3.13  15 3.13  17 3.13  28 3.13  32 3.13  22 3.13  13 3.13
                            29 3.13  18 3.13  24 3.13   7 3.13
  26  0.500  0.750  0.750-   1 3.13  15 3.13  19 3.13  20 3.13  23 3.13  32 3.13   8 3.13   2 3.13
                            30 3.13   7 3.13  27 3.13  29 3.13
  27  0.500  0.000  0.000-   2 3.13   8 3.13  16 3.13  18 3.13  24 3.13  31 3.13   9 3.13  23 3.13
                            15 3.13   3 3.13  28 3.13  26 3.13
  28  0.500  0.250  0.250-   3 3.13   9 3.13  17 3.13  19 3.13  25 3.13  32 3.13  10 3.13  24 3.13
                            16 3.13   4 3.13  29 3.13  27 3.13
  29  0.500  0.500  0.500-   4 3.13   7 3.13  10 3.13  18 3.13  30 3.13  31 3.13  20 3.13  25 3.13
                            17 3.13   1 3.13  26 3.13  28 3.13
  30  0.250  0.500  0.750-   7 3.13  11 3.13  22 3.13  24 3.13  29 3.13  31 3.13  26 3.13  14 3.13
                            21 3.13  32 3.13  17 3.13  15 3.13
  31  0.500  0.250  0.750-   4 3.13   8 3.13  24 3.13  27 3.13  29 3.13  30 3.13   9 3.13  17 3.13
                            20 3.13  23 3.13  19 3.13  32 3.13
  32  0.500  0.500  0.000-   9 3.13  15 3.13  20 3.13  25 3.13  26 3.13  28 3.13   2 3.13  10 3.13
                            24 3.13  30 3.13  18 3.13  31 3.13

  LATTYP: Found a simple cubic cell.
 ALAT       =     8.8609833400

  Lattice vectors:

 A1 = (   8.8609833400,   0.0000000000,   0.0000000000)
 A2 = (   0.0000001600,   8.8609833400,   0.0000000000)
 A3 = (   0.0000001600,   0.0000001600,   8.8609833400)
 Subroutine PRICEL returns following result:

  LATTYP: Found a face centered cubic cell.
 ALAT       =     4.4304917100

  Lattice vectors:

 A1 = (   2.2152458750,   2.2152458350,   0.0000000000)
 A2 = (   2.2152457950,  -0.0000000400,  -2.2152458350)
 A3 = (  -0.0000000000,   2.2152457950,  -2.2152458350)

  32 primitive cells build up your supercell.

Analysis of symmetry for initial positions (statically):

 Routine SETGRP: Setting up the symmetry group for a
 simple cubic supercell.

 Subroutine GETGRP returns: Found 48 space group operations
 (whereof 48 operations were pure point group operations)
 out of a pool of 48 trial point group operations.

The static configuration has the point symmetry O_h .

Analysis of symmetry for dynamics (positions and initial velocities):

 Subroutine DYNSYM returns: Found 48 space group operations
 (whereof 48 operations were pure point group operations)
 out of a pool of 48 trial space group operations
 (whereof 48 operations were pure point group operations)
 and found also    32 'primitive' translations

The dynamic configuration has the point symmetry O_h .

 KPOINTS: Automatic mesh

Automatic generation of k-mesh.

 Subroutine IBZKPT returns following result:

 Found     20 irreducible k-points:

 Following reciprocal coordinates:
            Coordinates               Weight
  0.062500  0.062500  0.062500      8.000000
  0.187500  0.062500  0.062500     24.000000
  0.312500  0.062500  0.062500     24.000000
  0.437500  0.062500  0.062500     24.000000
  0.187500  0.187500  0.062500     24.000000
  0.312500  0.187500  0.062500     48.000000
  0.437500  0.187500  0.062500     48.000000
  0.312500  0.312500  0.062500     24.000000
  0.437500  0.312500  0.062500     48.000000
  0.437500  0.437500  0.062500     24.000000
  0.187500  0.187500  0.187500      8.000000
  0.312500  0.187500  0.187500     24.000000
  0.437500  0.187500  0.187500     24.000000
  0.312500  0.312500  0.187500     24.000000
  0.437500  0.312500  0.187500     48.000000
  0.437500  0.437500  0.187500     24.000000
  0.312500  0.312500  0.312500      8.000000
  0.437500  0.312500  0.312500     24.000000
  0.437500  0.437500  0.312500     24.000000
  0.437500  0.437500  0.437500      8.000000

 Following cartesian coordinates:
            Coordinates               Weight
  0.007053  0.007053  0.007053      8.000000
  0.021160  0.007053  0.007053     24.000000
  0.035267  0.007053  0.007053     24.000000
  0.049374  0.007053  0.007053     24.000000
  0.021160  0.021160  0.007053     24.000000
  0.035267  0.021160  0.007053     48.000000
  0.049374  0.021160  0.007053     48.000000
  0.035267  0.035267  0.007053     24.000000
  0.049374  0.035267  0.007053     48.000000
  0.049374  0.049374  0.007053     24.000000
  0.021160  0.021160  0.021160      8.000000
  0.035267  0.021160  0.021160     24.000000
  0.049374  0.021160  0.021160     24.000000
  0.035267  0.035267  0.021160     24.000000
  0.049374  0.035267  0.021160     48.000000
  0.049374  0.049374  0.021160     24.000000
  0.035267  0.035267  0.035267      8.000000
  0.049374  0.035267  0.035267     24.000000
  0.049374  0.049374  0.035267     24.000000
  0.049374  0.049374  0.049374      8.000000

 I would recommend the setting:
   dimension x,y,z NGX =    71 NGY =   71 NGZ =   71
 SYSTEM =  No title
 POSCAR =  No title

 Startparameter for this run:
   NWRITE =      2    write-flag & timer
   PREC   = accura    medium, high low
   ISTART =      0    job   : 0-new  1-cont  2-samecut
   ICHARG =      2    charge: 1-file 2-atom 10-const
   ISPIN  =      1    spin polarized calculation?
   LNONCOLLINEAR =      F non collinear calculations
   LSORBIT =      F    spin-orbit coupling
   INIWAV =      1    electr: 0-lowe 1-rand  2-diag
   LASPH  =      F    aspherical Exc in radial PAW
   METAGGA=      F    non-selfconsistent MetaGGA calc.

 Electronic Relaxation 1
   ENCUT  =  600.0 eV  44.10 Ry    6.64 a.u.  17.70 17.70 17.70*2*pi/ulx,y,z
   ENINI  =  600.0     initial cutoff
   ENAUG  =  412.5 eV  augmentation charge cutoff
   NELM   =     60;   NELMIN=  2; NELMDL=-12     # of ELM steps
   EDIFF  = 0.1E-04   stopping-criterion for ELM
   LREAL  =      F    real-space projection
   LCOMPAT=      F    compatible to vasp.4.4
   LREAL_COMPAT= F    compatible to vasp.4.5.1-3
   GGA_COMPAT  = T    GGA compatible to vasp.4.4-vasp.4.6
   LMAXPAW     = -100 max onsite density
   LMAXMIX     =    2 max onsite mixed and CHGCAR
   VOSKOWN=      1    Vosko Wilk Nusair interpolation
   ROPT   =    0.00000
 Ionic relaxation
   EDIFFG = -.2E-01   stopping-criterion for IOM
   NSW    =    100    number of steps for IOM
   NBLOCK =      1;   KBLOCK =    100    inner block; outer block
   IBRION =      2    ionic relax: 0-MD 1-quasi-New 2-CG
   NFREE  =      1    steps in history (QN), initial steepest desc. (CG)
   ISIF   =      2    stress and relaxation
   IWAVPR =     11    prediction:  0-non 1-charg 2-wave 3-comb
[...]
 number of electron  352.0000004 magnetization
 augmentation part   164.8961622 magnetization

 Broyden mixing:
  rms(total) = 0.12884E+01    rms(broyden)= 0.12884E+01
  rms(prec ) = 0.19333E+01
  weight for this iteration     100.00

[...]

 eigenvalues of (default mixing * dielectric matrix)
  average eigenvalue GAMMA=   1.0061
  1.0061

[...]

 Broyden mixing:
  rms(total) = 0.32892E-03    rms(broyden)= 0.32859E-03
  rms(prec ) = 0.46399E-03
  weight for this iteration     100.00

 eigenvalues of (default mixing * dielectric matrix)
  average eigenvalue GAMMA=   1.8429
  2.8566  2.8566  2.3320  0.9729  1.0195  1.0195

[...]

----------------------------------------- Iteration    1(  19)  ---------------------------------------

 eigenvalue-minimisations  :  4398
 total energy-change (2. order) : 0.3829926E-05  (-0.4277892E-06)
 number of electron  352.0000004 magnetization
 augmentation part   169.9231449 magnetization

 Free energy of the ion-electron system (eV)
  alpha Z        PSCENC =      2613.62119174
  Ewald energy   TEWEN  =    -28849.33643601
  -1/2 Hartree   DENC   =     -7381.37861026
  -V(xc)+E(xc)   XCENC  =      -373.27642072
  PAW double counting   =     27490.32696662   -26046.83000148
  entropy T*S    EENTRO =        -0.01302306
  eigenvalues    EBANDS =      -736.36651134
  atomic energy  EATOM  =     33197.16788402
  free energy    TOTEN  =       -86.08496049 eV

  energy without entropy =      -86.07193743  energy(sigma->0) =      -86.08061947

 average (electrostatic) potential at core
  the test charge radii are     1.1249
  (the norm of the test charge is              1.0000)
       1 -42.6416       2 -42.6416       3 -42.6416       4 -42.6416       5 -42.6416
       6 -42.6416       7 -42.6416       8 -42.6416       9 -42.6416      10 -42.6416
      11 -42.6416      12 -42.6416      13 -42.6416      14 -42.6416      15 -42.6416
      16 -42.6416      17 -42.6416      18 -42.6416      19 -42.6416      20 -42.6416
      21 -42.6416      22 -42.6416      23 -42.6416      24 -42.6416      25 -42.6416
      26 -42.6416      27 -42.6416      28 -42.6416      29 -42.6416      30 -42.6416
      31 -42.6416      32 -42.6416

 E-fermi :   1.6833     XC(G=0): -10.8207     alpha+bet : -6.6972
   add alpha+bet to get absolut eigen values

 k-point   1 :       0.0625    0.0625    0.0625
  band No.  band energies     occupation
      1      -4.4977      2.00000
      2      -3.4919      2.00000
      3      -3.4919      2.00000
      4      -3.4919      2.00000
      5      -3.4900      2.00000
      6      -3.4818      2.00000
      7      -3.4818      2.00000
      8      -3.4818      2.00000
      9      -3.4306      2.00000
     10      -3.4306      2.00000
     11      -3.4306      2.00000
     12      -3.1518      2.00000
     13      -3.1518      2.00000
     14      -3.1518      2.00000
     15      -3.0991      2.00000
     16      -3.0991      2.00000
     17      -3.0991      2.00000
     18      -3.0154      2.00000
     19      -3.0154      2.00000
     20      -3.0154      2.00000
     21      -2.9905      2.00000
     22      -2.9905      2.00000
     23      -2.9905      2.00000
     24      -2.9905      2.00000
     25      -2.9905      2.00000
     26      -2.9905      2.00000
     27      -2.9213      2.00000
     28      -2.9213      2.00000
     29      -2.9213      2.00000
     30      -2.8370      2.00000
     31      -2.8370      2.00000
     32      -2.8370      2.00000
     33      -2.8078      2.00000
     34      -2.8078      2.00000
     35      -2.8078      2.00000
     36      -2.8011      2.00000
     37      -2.8011      2.00000
     38      -2.8011      2.00000
     39      -2.8011      2.00000
     40      -2.8011      2.00000
     41      -2.8011      2.00000
     42      -2.6991      2.00000
     43      -2.6991      2.00000
     44      -2.6991      2.00000
     45      -2.6991      2.00000
     46      -2.6991      2.00000
     47      -2.6991      2.00000
     48      -2.6438      2.00000
     49      -2.6438      2.00000
     50      -2.6438      2.00000
     51      -2.6420      2.00000
     52      -2.6420      2.00000
     53      -2.6420      2.00000
     54      -2.6420      2.00000
     55      -2.6420      2.00000
     56      -2.6420      2.00000
     57      -2.6038      2.00000
     58      -2.6038      2.00000
     59      -2.6038      2.00000
     60      -2.5012      2.00000
[...]
    198       6.8102     -0.00000
    199       6.8135     -0.00000
    200       6.8166     -0.00000
    201       6.8166     -0.00000
    202       6.8166     -0.00000
    203       6.8168     -0.00000
    204       6.8174     -0.00000
    205       6.8381     -0.00000
    206       7.4917      0.00000
    207       7.4921      0.00000
    208       7.4931      0.00000
    209       7.5115      0.00000
    210       7.8180      0.00000
    211       8.5575      0.00000
    212       8.7850      0.00000

[...]

 k-point  20 :       0.4375    0.4375    0.4375
  band No.  band energies     occupation
      1      -3.5546      2.00000
      2      -3.4507      2.00000
      3      -3.4507      2.00000
      4      -3.4507      2.00000
      5      -3.3980      2.00000
      6      -3.3980      2.00000
      7      -3.3980      2.00000
      8      -3.3901      2.00000
      9      -3.2136      2.00000
     10      -3.2136      2.00000
     11      -3.2136      2.00000
     12      -3.1842      2.00000
     13      -3.1842      2.00000
     14      -3.1842      2.00000
     15      -3.1711      2.00000
     16      -3.1711      2.00000
     17      -3.1711      2.00000
     18      -3.1711      2.00000
     19      -3.1711      2.00000
     20      -3.1711      2.00000
     21      -3.1601      2.00000
     22      -3.1601      2.00000
     23      -3.1601      2.00000
     24      -3.1574      2.00000
     25      -3.1574      2.00000
     26      -3.1574      2.00000
     27      -3.1574      2.00000
     28      -3.1574      2.00000
     29      -3.1574      2.00000
     30      -3.1528      2.00000
     31      -3.1528      2.00000
     32      -3.1528      2.00000
     33      -2.9072      2.00000
     34      -2.9072      2.00000
     35      -2.9072      2.00000
     36      -2.8251      2.00000
     37      -2.8251      2.00000
     38      -2.8251      2.00000
     39      -2.8109      2.00000
     40      -2.8109      2.00000
     41      -2.8109      2.00000
     42      -2.8109      2.00000
     43      -2.8109      2.00000
     44      -2.8109      2.00000
     45      -2.7382      2.00000
     46      -2.7382      2.00000
     47      -2.7382      2.00000
     48      -2.7382      2.00000
     49      -2.7382      2.00000
     50      -2.7382      2.00000
     51      -2.7322      2.00000
     52      -2.7322      2.00000
     53      -2.7322      2.00000
     54      -2.6778      2.00000
     55      -2.6778      2.00000
     56      -2.6778      2.00000
     57      -2.3537      2.00000
     58      -2.3513      2.00000
     59      -2.3513      2.00000
     60      -2.3513      2.00000
[...]
    198       6.1630     -0.00000
    199       6.5831     -0.00000
    200       6.5831     -0.00000
    201       6.5840     -0.00000
    202       6.5852     -0.00000
    203       6.5902     -0.00000
    204       6.6962     -0.00000
    205       6.9038     -0.00000
    206       6.9038     -0.00000
    207       6.9052     -0.00000
    208       6.9201     -0.00000
    209       6.9890     -0.00000
    210       7.1577      0.00000
    211       7.4446      0.00000
    212       7.5397      0.00000

 soft charge-density along one line, spin component           1
         0         1         2         3         4         5         6         7         8         9
 total charge-density along one line

------------------------ aborting loop because EDIFF is reached ----------------------------------------

  FREE ENERGIE OF THE ION-ELECTRON SYSTEM (eV)
  free  energy   TOTEN  =       -86.084960 eV

  energy  without entropy=      -86.071937  energy(sigma->0) =      -86.080619

  FORCE on cell =-STRESS in cart. coord.  units (eV/reduce length):
  Direction    X        Y        Z        XY       YZ       ZX
  Alpha Z   2613.62   2613.62   2613.62
  Ewald    -9616.49  -9616.49  -9616.49     -0.00     -0.00     -0.00
  Hartree   2460.44   2460.44   2460.44     -0.00     -0.00     -0.00
  E(xc)    -1850.07  -1850.07  -1850.07     -0.00     -0.00     -0.00
  Local     2854.63   2854.63   2854.63      0.00      0.00      0.00
  n-local  -2187.90  -2183.43  -2178.08      2.13     -0.24      1.14
  augment   1333.81   1333.81   1333.81      0.00      0.00      0.00
  Kinetic   4337.32   4344.81   4353.55      1.79     -2.48      0.24
  Total      -41.97    -41.97    -41.97     -0.00     -0.00     -0.00
  in kB      -96.66    -96.66    -96.66     -0.00     -0.00     -0.00

 VOLUME and BASIS-vectors are now :
  energy-cutoff  :      600.00
  volume of cell :      695.74
      direct lattice vectors                 reciprocal lattice vectors
     8.860983340  0.000000000  0.000000000     0.112854292 -0.000000002 -0.000000002
     0.000000160  8.860983340  0.000000000     0.000000000  0.112854292 -0.000000002
     0.000000160  0.000000160  8.860983340     0.000000000  0.000000000  0.112854292

  length of vectors
     8.860983340  8.860983340  8.860983340     0.112854292  0.112854292  0.112854292

 FORCES acting on ions
    electron-ion (+dipol)            ewald-force                    non-local-force                 convergence-correction
   0.951E-12 0.496E-11 -.585E-11   -.109E-12 -.107E-12 -.144E-12   -.151E-23 -.199E-24 -.315E-23   -.726E-13 -.528E-12 0.786E-13
   0.963E-12 -.123E-10 0.132E-11   -.114E-12 -.103E-12 -.169E-12   0.389E-23 -.179E-22 -.401E-23   0.813E-13 -.595E-12 -.215E-12
   0.943E-12 -.197E-12 0.123E-10   -.768E-13 -.401E-13 -.119E-12   0.687E-23 0.493E-23 -.145E-23   0.250E-12 0.265E-12 0.801E-12
   0.933E-12 -.618E-11 -.405E-11   -.870E-13 -.862E-13 -.193E-12   -.687E-23 0.318E-23 -.879E-23   0.260E-13 0.552E-12 0.397E-13
   -.117E-12 0.944E-12 0.259E-12   -.350E-13 -.149E-12 -.777E-13   -.395E-23 0.240E-23 -.465E-23   -.771E-13 -.553E-12 0.693E-12
   -.110E-12 -.123E-12 0.591E-12   0.740E-14 -.679E-13 -.103E-12   -.562E-23 -.537E-23 0.310E-23   0.360E-13 0.236E-12 0.143E-12
   0.275E-12 0.166E-11 0.421E-12   -.160E-13 -.986E-13 -.111E-12   0.101E-22 0.873E-23 0.103E-24   0.604E-14 -.419E-12 0.266E-12
   0.949E-12 -.166E-12 -.109E-10   -.293E-13 -.590E-13 0.173E-13   -.541E-23 -.457E-23 0.403E-23   -.761E-13 0.276E-12 -.758E-12
   0.946E-12 0.108E-10 0.128E-11   -.782E-13 -.103E-12 -.793E-13   0.423E-23 0.257E-23 -.851E-23   0.101E-12 0.647E-12 -.236E-12
   0.944E-12 -.549E-11 -.471E-11   -.100E-12 0.671E-13 -.684E-13   -.550E-23 -.143E-23 -.105E-22   0.201E-13 -.324E-12 0.667E-12
   -.112E-12 0.948E-12 0.935E-12   0.361E-13 -.147E-13 0.933E-14   0.715E-23 0.383E-23 0.535E-23   0.968E-13 -.425E-12 -.703E-12
   -.109E-12 -.121E-12 -.103E-12   -.350E-13 0.735E-14 -.804E-13   0.447E-23 -.621E-23 0.659E-24   -.155E-13 0.272E-12 -.233E-12
   -.115E-12 0.277E-12 0.261E-12   -.327E-13 0.573E-13 0.262E-13   -.855E-24 0.573E-23 0.103E-23   -.131E-12 0.557E-12 0.656E-12
   -.114E-12 0.605E-12 0.585E-12   -.119E-13 0.919E-13 -.490E-14   0.279E-23 -.279E-23 0.238E-23   -.901E-13 -.254E-12 -.180E-13
   0.263E-12 -.282E-11 0.629E-13   -.497E-13 -.195E-12 -.311E-13   0.166E-23 -.152E-23 0.186E-23   -.147E-12 -.606E-12 -.376E-12
   0.280E-12 -.102E-12 0.802E-12   -.275E-13 -.281E-13 0.444E-15   0.224E-23 -.318E-23 -.560E-23   -.311E-12 0.226E-12 0.847E-12
   0.292E-12 -.175E-11 0.417E-12   0.164E-13 0.364E-13 -.647E-13   -.612E-23 -.110E-23 -.434E-23   -.774E-13 0.410E-12 0.219E-12
   0.596E-12 0.183E-11 -.303E-11   0.132E-12 -.139E-12 0.728E-13   0.194E-23 0.394E-23 -.279E-23   0.710E-13 -.781E-12 0.818E-12
   0.591E-12 -.126E-12 0.160E-11   0.145E-13 0.109E-12 0.126E-13   0.823E-23 -.976E-24 0.169E-23   -.408E-13 0.146E-12 0.442E-12
   0.949E-12 -.729E-11 0.642E-11   -.355E-13 0.715E-13 0.213E-13   0.532E-23 0.565E-23 0.176E-23   -.917E-13 -.287E-12 -.722E-12
   -.110E-12 0.270E-12 0.937E-12   0.144E-13 0.311E-14 0.124E-12   0.586E-23 0.154E-23 0.861E-23   0.694E-14 0.408E-12 -.649E-12
   -.113E-12 0.605E-12 -.997E-13   0.542E-13 0.199E-12 0.999E-13   -.927E-23 0.506E-23 0.114E-23   -.303E-13 -.306E-12 -.120E-12
   0.274E-12 -.126E-12 -.251E-11   0.306E-13 -.348E-13 0.126E-12   -.698E-24 -.500E-23 -.398E-23   0.128E-13 0.189E-12 -.816E-12
   0.280E-12 0.233E-11 -.300E-12   -.284E-13 0.604E-13 0.863E-13   -.549E-23 -.260E-23 0.000E+00   -.157E-12 0.599E-12 -.325E-12
   0.281E-12 0.590E-12 -.324E-11   0.639E-13 0.111E-12 0.924E-13   -.140E-23 0.257E-23 0.724E-24   -.766E-13 -.241E-12 0.619E-12
   0.590E-12 -.697E-11 -.113E-11   0.114E-12 -.311E-13 0.773E-13   0.326E-23 -.185E-23 -.414E-23   -.993E-13 -.447E-12 -.880E-12
   0.592E-12 0.172E-13 0.884E-11   0.760E-13 0.902E-13 0.648E-13   -.328E-24 0.115E-23 -.558E-23   0.128E-13 0.258E-12 -.591E-12
   0.597E-12 -.583E-12 0.518E-11   0.140E-12 0.102E-12 0.107E-12   -.794E-23 -.130E-22 -.521E-23   0.133E-12 0.799E-12 0.712E-12
   0.595E-12 -.329E-11 0.259E-11   0.923E-13 0.400E-13 0.470E-13   -.100E-22 -.323E-23 -.434E-23   0.893E-13 -.164E-12 0.657E-13
   0.275E-12 0.614E-12 0.146E-11   0.151E-13 0.990E-13 0.196E-12   -.570E-23 0.485E-23 0.165E-23   0.300E-13 -.182E-12 -.663E-12
   0.590E-12 -.504E-12 -.741E-12   0.864E-13 0.139E-12 0.140E-12   -.591E-23 0.287E-23 -.207E-23   -.460E-14 0.418E-12 -.751E-12
   0.596E-12 0.456E-11 -.480E-12   0.119E-12 0.102E-12 0.201E-12   -.594E-23 -.163E-22 -.827E-24   0.336E-13 -.293E-12 -.247E-12
   0.136E-10 -.171E-10 0.913E-11   0.146E-12 0.129E-12 0.277E-12   -.205E-22 -.282E-22 -.459E-22   -.492E-12 -.146E-12 -.124E-11

 POSITION                                       TOTAL-FORCE (eV/Angst)
      6.64574      6.64574      4.43049         0.000000      0.000000     -0.000000
      6.64574      6.64574      0.00000        -0.000000      0.000000      0.000000
      6.64574      0.00000      2.21525        -0.000000     -0.000000      0.000000
      6.64574      2.21525      4.43049        -0.000000     -0.000000      0.000000
      0.00000      6.64574      2.21525         0.000000     -0.000000     -0.000000
      0.00000      0.00000      4.43049         0.000000      0.000000     -0.000000
      2.21525      6.64574      4.43049         0.000000     -0.000000      0.000000
      6.64574      0.00000      6.64574         0.000000      0.000000     -0.000000
      6.64574      2.21525      0.00000         0.000000     -0.000000     -0.000000
      6.64574      4.43049      2.21525        -0.000000      0.000000      0.000000
      0.00000      6.64574      6.64574        -0.000000     -0.000000     -0.000000
      0.00000      0.00000      0.00000        -0.000000     -0.000000      0.000000
      0.00000      2.21525      2.21525        -0.000000     -0.000000      0.000000
      0.00000      4.43049      4.43049         0.000000     -0.000000      0.000000
      2.21525      6.64574      0.00000         0.000000      0.000000      0.000000
      2.21525      0.00000      2.21525         0.000000      0.000000     -0.000000
      2.21525      2.21525      4.43049        -0.000000      0.000000     -0.000000
      4.43049      6.64574      2.21525        -0.000000     -0.000000      0.000000
      4.43049      0.00000      4.43049        -0.000000     -0.000000     -0.000000
      6.64574      4.43049      6.64574        -0.000000     -0.000000     -0.000000
      0.00000      2.21525      6.64574         0.000000      0.000000     -0.000000
      0.00000      4.43049      0.00000        -0.000000      0.000000     -0.000000
      2.21525      0.00000      6.64574        -0.000000     -0.000000     -0.000000
      2.21525      2.21525      0.00000        -0.000000     -0.000000      0.000000
      2.21525      4.43049      2.21525        -0.000000     -0.000000     -0.000000
      4.43049      6.64574      6.64574         0.000000      0.000000     -0.000000
      4.43049      0.00000      0.00000         0.000000      0.000000     -0.000000
      4.43049      2.21525      2.21525         0.000000      0.000000     -0.000000
      4.43049      4.43049      4.43049        -0.000000      0.000000     -0.000000
      2.21525      4.43049      6.64574        -0.000000      0.000000     -0.000000
      4.43049      2.21525      6.64574        -0.000000      0.000000      0.000000
      4.43049      4.43049      0.00000        -0.000000     -0.000000     -0.000000
    total drift:                                0.000000     -0.000000      0.000000

 reached required accuracy - stopping structural energy minimisation
 writing wavefunctions