 vasp.4.6.28 25Jul05 complex
 executed on             LinuxIFC date 2017.01.14  04:21:13

 INCAR:
 POTCAR:   PAW_PBE Cu 05Jan2001
 POTCAR:   PAW_PBE Cu 05Jan2001
   VRHFIN =Cu: d10 p1

   TITEL  = PAW_PBE Cu 05Jan2001
   POMASS =   63.546; ZVAL   =   11.000    mass and valenz
   ENMAX  =  273.214; ENMIN  =  204.910 eV
   QCUT   =   -4.481; QGAM   =    8.962    optimization parameters

   Description
     l     E      TYP  RCUT    TYP  RCUT
     2   .000     23  2.300
     2   .000     23  2.300
     0   .000     23  2.300
     0   .000     23  2.300
     1  -.200     23  2.300
     1   .000     23  2.300
     3   .000      7   .000

 PAW_PBE Cu 05Jan2001                   :

 POSCAR: Cu
  positions in direct lattice
  velocities in cartesian coordinates

 ion  position               nearest neighbor table
   1  0.000  0.000  0.000-   2 2.75   3 2.75   4 2.75   3 2.75   4 2.75   2 2.75   4 2.75   4 2.75
                             2 2.75   3 2.75   3 2.75   2 2.75
   2  0.500  0.500  0.000-   1 2.75   3 2.75   4 2.75   3 2.75   4 2.75   1 2.75   3 2.75   3 2.75
                             1 2.75   4 2.75   4 2.75   1 2.75
   3  0.500  0.000  0.500-   1 2.75   2 2.75   4 2.75   1 2.75   2 2.75   2 2.75   4 2.75   2 2.75
                             1 2.75   4 2.75   1 2.75   4 2.75
   4  0.000  0.500  0.500-   1 2.75   2 2.75   3 2.75   1 2.75   2 2.75   1 2.75   3 2.75   1 2.75
                             2 2.75   3 2.75   2 2.75   3 2.75

  LATTYP: Found a simple cubic cell.
 ALAT       =     3.8914019209

  Lattice vectors:

 A1 = (   3.8914019209,   0.0000000000,   0.0000000000)
 A2 = (   0.0000000000,   3.8914019209,   0.0000000000)
 A3 = (   0.0000000000,   0.0000000000,   3.8914019209)
 Subroutine PRICEL returns following result:

  LATTYP: Found a face centered cubic cell.
 ALAT       =     3.8914019209

  Lattice vectors:

 A1 = (   1.9457009605,   1.9457009605,   0.0000000000)
 A2 = (   1.9457009605,   0.0000000000,  -1.9457009605)
 A3 = (   0.0000000000,   1.9457009605,  -1.9457009605)

   4 primitive cells build up your supercell.

Analysis of symmetry for initial positions (statically):

 Routine SETGRP: Setting up the symmetry group for a
 simple cubic supercell.

 Subroutine GETGRP returns: Found 48 space group operations
 (whereof 48 operations were pure point group operations)
 out of a pool of 48 trial point group operations.

The static configuration has the point symmetry O_h .

Analysis of symmetry for dynamics (positions and initial velocities):

 Subroutine DYNSYM returns: Found 48 space group operations
 (whereof 48 operations were pure point group operations)
 out of a pool of 48 trial space group operations
 (whereof 48 operations were pure point group operations)
 and found also     4 'primitive' translations

The dynamic configuration has the point symmetry O_h .

 KPOINTS: Automatic mesh

Automatic generation of k-mesh.

 Subroutine IBZKPT returns following result:

 Found   1330 irreducible k-points:

 Following reciprocal coordinates:
            Coordinates               Weight
  0.000000  0.000000  0.000000      1.000000
  0.027778  0.000000  0.000000      6.000000
  0.055556  0.000000  0.000000      6.000000
  0.083333  0.000000  0.000000      6.000000
  0.111111  0.000000  0.000000      6.000000
  0.138889  0.000000  0.000000      6.000000
  0.166667  0.000000  0.000000      6.000000
  0.194444  0.000000  0.000000      6.000000
  0.222222  0.000000  0.000000      6.000000
  0.250000  0.000000  0.000000      6.000000
  0.277778  0.000000  0.000000      6.000000
  0.305556  0.000000  0.000000      6.000000
  0.333333  0.000000  0.000000      6.000000
  0.361111  0.000000  0.000000      6.000000
  0.388889  0.000000  0.000000      6.000000
  0.416667  0.000000  0.000000      6.000000
  0.444444  0.000000  0.000000      6.000000
  0.472222  0.000000  0.000000      6.000000
  0.500000  0.000000  0.000000      3.000000
  0.027778  0.027778  0.000000     12.000000
  0.055556  0.027778  0.000000     24.000000
  0.083333  0.027778  0.000000     24.000000
  0.111111  0.027778  0.000000     24.000000
  0.138889  0.027778  0.000000     24.000000
  0.166667  0.027778  0.000000     24.000000
  0.194444  0.027778  0.000000     24.000000
  0.222222  0.027778  0.000000     24.000000
  0.250000  0.027778  0.000000     24.000000
  0.277778  0.027778  0.000000     24.000000
  0.305556  0.027778  0.000000     24.000000
  0.333333  0.027778  0.000000     24.000000
  0.361111  0.027778  0.000000     24.000000
  0.388889  0.027778  0.000000     24.000000
  0.416667  0.027778  0.000000     24.000000
  0.444444  0.027778  0.000000     24.000000
  0.472222  0.027778  0.000000     24.000000
  0.500000  0.027778  0.000000     12.000000
  0.055556  0.055556  0.000000     12.000000
  0.083333  0.055556  0.000000     24.000000
  0.111111  0.055556  0.000000     24.000000
  0.138889  0.055556  0.000000     24.000000
  0.166667  0.055556  0.000000     24.000000
  0.194444  0.055556  0.000000     24.000000
  0.222222  0.055556  0.000000     24.000000
  0.250000  0.055556  0.000000     24.000000
  0.277778  0.055556  0.000000     24.000000
  0.305556  0.055556  0.000000     24.000000
  0.333333  0.055556  0.000000     24.000000
  0.361111  0.055556  0.000000     24.000000
  0.388889  0.055556  0.000000     24.000000
  0.416667  0.055556  0.000000     24.000000
  0.444444  0.055556  0.000000     24.000000
  0.472222  0.055556  0.000000     24.000000
  0.500000  0.055556  0.000000     12.000000
  0.083333  0.083333  0.000000     12.000000
  0.111111  0.083333  0.000000     24.000000
  0.138889  0.083333  0.000000     24.000000
  0.166667  0.083333  0.000000     24.000000
  0.194444  0.083333  0.000000     24.000000
  0.222222  0.083333  0.000000     24.000000
[...]
  0.472222  0.444444  0.416667     48.000000
  0.500000  0.444444  0.416667     24.000000
  0.472222  0.472222  0.416667     24.000000
  0.500000  0.472222  0.416667     24.000000
  0.500000  0.500000  0.416667      6.000000
  0.444444  0.444444  0.444444      8.000000
  0.472222  0.444444  0.444444     24.000000
  0.500000  0.444444  0.444444     12.000000
  0.472222  0.472222  0.444444     24.000000
  0.500000  0.472222  0.444444     24.000000
  0.500000  0.500000  0.444444      6.000000
  0.472222  0.472222  0.472222      8.000000
  0.500000  0.472222  0.472222     12.000000
  0.500000  0.500000  0.472222      6.000000
  0.500000  0.500000  0.500000      1.000000

 Following cartesian coordinates:
            Coordinates               Weight
  0.000000  0.000000  0.000000      1.000000
  0.007638  0.000000  0.000000      6.000000
  0.015276  0.000000  0.000000      6.000000
  0.022914  0.000000  0.000000      6.000000
  0.030552  0.000000  0.000000      6.000000
  0.038190  0.000000  0.000000      6.000000
  0.045828  0.000000  0.000000      6.000000
  0.053465  0.000000  0.000000      6.000000
  0.061103  0.000000  0.000000      6.000000
  0.068741  0.000000  0.000000      6.000000
  0.076379  0.000000  0.000000      6.000000
  0.084017  0.000000  0.000000      6.000000
  0.091655  0.000000  0.000000      6.000000
  0.099293  0.000000  0.000000      6.000000
  0.106931  0.000000  0.000000      6.000000
  0.114569  0.000000  0.000000      6.000000
  0.122207  0.000000  0.000000      6.000000
  0.129845  0.000000  0.000000      6.000000
  0.137483  0.000000  0.000000      3.000000
  0.007638  0.007638  0.000000     12.000000
  0.015276  0.007638  0.000000     24.000000
  0.022914  0.007638  0.000000     24.000000
  0.030552  0.007638  0.000000     24.000000
  0.038190  0.007638  0.000000     24.000000
  0.045828  0.007638  0.000000     24.000000
  0.053465  0.007638  0.000000     24.000000
  0.061103  0.007638  0.000000     24.000000
  0.068741  0.007638  0.000000     24.000000
  0.076379  0.007638  0.000000     24.000000
  0.084017  0.007638  0.000000     24.000000
  0.091655  0.007638  0.000000     24.000000
  0.099293  0.007638  0.000000     24.000000
  0.106931  0.007638  0.000000     24.000000
  0.114569  0.007638  0.000000     24.000000
  0.122207  0.007638  0.000000     24.000000
  0.129845  0.007638  0.000000     24.000000
  0.137483  0.007638  0.000000     12.000000
  0.015276  0.015276  0.000000     12.000000
  0.022914  0.015276  0.000000     24.000000
  0.030552  0.015276  0.000000     24.000000
  0.038190  0.015276  0.000000     24.000000
  0.045828  0.015276  0.000000     24.000000
  0.053465  0.015276  0.000000     24.000000
  0.061103  0.015276  0.000000     24.000000
  0.068741  0.015276  0.000000     24.000000
  0.076379  0.015276  0.000000     24.000000
  0.084017  0.015276  0.000000     24.000000
  0.091655  0.015276  0.000000     24.000000
  0.099293  0.015276  0.000000     24.000000
  0.106931  0.015276  0.000000     24.000000
  0.114569  0.015276  0.000000     24.000000
  0.122207  0.015276  0.000000     24.000000
  0.129845  0.015276  0.000000     24.000000
  0.137483  0.015276  0.000000     12.000000
  0.022914  0.022914  0.000000     12.000000
  0.030552  0.022914  0.000000     24.000000
  0.038190  0.022914  0.000000     24.000000
  0.045828  0.022914  0.000000     24.000000
  0.053465  0.022914  0.000000     24.000000
  0.061103  0.022914  0.000000     24.000000
[...]
  0.129845  0.122207  0.114569     48.000000
  0.137483  0.122207  0.114569     24.000000
  0.129845  0.129845  0.114569     24.000000
  0.137483  0.129845  0.114569     24.000000
  0.137483  0.137483  0.114569      6.000000
  0.122207  0.122207  0.122207      8.000000
  0.129845  0.122207  0.122207     24.000000
  0.137483  0.122207  0.122207     12.000000
  0.129845  0.129845  0.122207     24.000000
  0.137483  0.129845  0.122207     24.000000
  0.137483  0.137483  0.122207      6.000000
  0.129845  0.129845  0.129845      8.000000
  0.137483  0.129845  0.129845     12.000000
  0.137483  0.137483  0.129845      6.000000
  0.137483  0.137483  0.137483      1.000000

 I would recommend the setting:
   dimension x,y,z NGX =    40 NGY =   40 NGZ =   40
 SYSTEM =  unknown system
 POSCAR =  Cu

 Startparameter for this run:
   NWRITE =      2    write-flag & timer
   PREC   = accura    medium, high low
   ISTART =      0    job   : 0-new  1-cont  2-samecut
   ICHARG =      2    charge: 1-file 2-atom 10-const
   ISPIN  =      1    spin polarized calculation?
   LNONCOLLINEAR =      F non collinear calculations
   LSORBIT =      F    spin-orbit coupling
   INIWAV =      1    electr: 0-lowe 1-rand  2-diag
   LASPH  =      F    aspherical Exc in radial PAW
   METAGGA=      F    non-selfconsistent MetaGGA calc.

 Electronic Relaxation 1
   ENCUT  = 1000.0 eV  73.50 Ry    8.57 a.u.  10.03 10.03 10.03*2*pi/ulx,y,z
   ENINI  = 1000.0     initial cutoff
   ENAUG  =  516.5 eV  augmentation charge cutoff
   NELM   =     60;   NELMIN=  2; NELMDL= -5     # of ELM steps
   EDIFF  = 0.1E-07   stopping-criterion for ELM
   LREAL  =      F    real-space projection
   LCOMPAT=      F    compatible to vasp.4.4
   LREAL_COMPAT= F    compatible to vasp.4.5.1-3
   GGA_COMPAT  = T    GGA compatible to vasp.4.4-vasp.4.6
   LMAXPAW     = -100 max onsite density
   LMAXMIX     =    2 max onsite mixed and CHGCAR
[...]
 k-point 23 :  0.11110.02780.0000  plane waves:   4233
 k-point 24 :  0.13890.02780.0000  plane waves:   4223
 k-point 25 :  0.16670.02780.0000  plane waves:   4213
 k-point 26 :  0.19440.02780.0000  plane waves:   4209
 k-point 27 :  0.22220.02780.0000  plane waves:   4213
 k-point 28 :  0.25000.02780.0000  plane waves:   4217
 k-point 29 :  0.27780.02780.0000  plane waves:   4213
 k-point 30 :  0.30560.02780.0000  plane waves:   4220
 k-point 31 :  0.33330.02780.0000  plane waves:   4217
 k-point 32 :  0.36110.02780.0000  plane waves:   4212
 k-point 33 :  0.38890.02780.0000  plane waves:   4209
 k-point 34 :  0.41670.02780.0000  plane waves:   4214
 k-point 35 :  0.44440.02780.0000  plane waves:   4217
 k-point 36 :  0.47220.02780.0000  plane waves:   4213
 k-point 37 :  0.50000.02780.0000  plane waves:   4210
 k-point 38 :  0.05560.05560.0000  plane waves:   4227
 k-point 39 :  0.08330.05560.0000  plane waves:   4226
 k-point 40 :  0.11110.05560.0000  plane waves:   4220
 k-point 41 :  0.13890.05560.0000  plane waves:   4218
 k-point 42 :  0.16670.05560.0000  plane waves:   4213
 k-point 43 :  0.19440.05560.0000  plane waves:   4211
 k-point 44 :  0.22220.05560.0000  plane waves:   4211
 k-point 45 :  0.25000.05560.0000  plane waves:   4211
 k-point 46 :  0.27780.05560.0000  plane waves:   4214
 k-point 47 :  0.30560.05560.0000  plane waves:   4216
 k-point 48 :  0.33330.05560.0000  plane waves:   4218
 k-point 49 :  0.36110.05560.0000  plane waves:   4207
 k-point 50 :  0.38890.05560.0000  plane waves:   4211
 k-point 51 :  0.41670.05560.0000  plane waves:   4212
 k-point 52 :  0.44440.05560.0000  plane waves:   4209
 k-point 53 :  0.47220.05560.0000  plane waves:   4212
 k-point 54 :  0.50000.05560.0000  plane waves:   4208
 k-point 55 :  0.08330.08330.0000  plane waves:   4223
 k-point 56 :  0.11110.08330.0000  plane waves:   4223
 k-point 57 :  0.13890.08330.0000  plane waves:   4215
 k-point 58 :  0.16670.08330.0000  plane waves:   4210
 k-point 59 :  0.19440.08330.0000  plane waves:   4217
 k-point 60 :  0.22220.08330.0000  plane waves:   4209
[...]
 k-point 85 :  0.50000.11110.0000  plane waves:   4222
 k-point 86 :  0.13890.13890.0000  plane waves:   4212
 k-point 87 :  0.16670.13890.0000  plane waves:   4207
 k-point 88 :  0.19440.13890.0000  plane waves:   4211
 k-point 89 :  0.22220.13890.0000  plane waves:   4204
 k-point 90 :  0.25000.13890.0000  plane waves:   4214
 k-point 91 :  0.27780.13890.0000  plane waves:   4215
 k-point 92 :  0.30560.13890.0000  plane waves:   4218
 k-point 93 :  0.33330.13890.0000  plane waves:   4217
 k-point 94 :  0.36110.13890.0000  plane waves:   4219
 k-point 95 :  0.38890.13890.0000  plane waves:   4229
 k-point 96 :  0.41670.13890.0000  plane waves:   4227
 k-point 97 :  0.44440.13890.0000  plane waves:   4229
 k-point 98 :  0.47220.13890.0000  plane waves:   4230
 k-point 99 :  0.50000.13890.0000  plane waves:   4234
 k-point ** :  0.16670.16670.0000  plane waves:   4196
 k-point ** :  0.19440.16670.0000  plane waves:   4209
 k-point ** :  0.22220.16670.0000  plane waves:   4211
 k-point ** :  0.25000.16670.0000  plane waves:   4212
 k-point ** :  0.27780.16670.0000  plane waves:   4220
 k-point ** :  0.30560.16670.0000  plane waves:   4220
 k-point ** :  0.33330.16670.0000  plane waves:   4216
 k-point ** :  0.36110.16670.0000  plane waves:   4225
 k-point ** :  0.38890.16670.0000  plane waves:   4230
 k-point ** :  0.41670.16670.0000  plane waves:   4227
 k-point ** :  0.44440.16670.0000  plane waves:   4233
 k-point ** :  0.47220.16670.0000  plane waves:   4233
 k-point ** :  0.50000.16670.0000  plane waves:   4242
 k-point ** :  0.19440.19440.0000  plane waves:   4210
 k-point ** :  0.22220.19440.0000  plane waves:   4220
 k-point ** :  0.25000.19440.0000  plane waves:   4220
 k-point ** :  0.27780.19440.0000  plane waves:   4228
 k-point ** :  0.30560.19440.0000  plane waves:   4224
 k-point ** :  0.33330.19440.0000  plane waves:   4224
 k-point ** :  0.36110.19440.0000  plane waves:   4228
 k-point ** :  0.38890.19440.0000  plane waves:   4226
 k-point ** :  0.41670.19440.0000  plane waves:   4233
 k-point ** :  0.44440.19440.0000  plane waves:   4225
 k-point ** :  0.47220.19440.0000  plane waves:   4227
 k-point ** :  0.50000.19440.0000  plane waves:   4226
 k-point ** :  0.22220.22220.0000  plane waves:   4228
 k-point ** :  0.25000.22220.0000  plane waves:   4235
 k-point ** :  0.27780.22220.0000  plane waves:   4228
 k-point ** :  0.30560.22220.0000  plane waves:   4227
 k-point ** :  0.33330.22220.0000  plane waves:   4221
 k-point ** :  0.36110.22220.0000  plane waves:   4221
 k-point ** :  0.38890.22220.0000  plane waves:   4225
 k-point ** :  0.41670.22220.0000  plane waves:   4226
 k-point ** :  0.44440.22220.0000  plane waves:   4227
 k-point ** :  0.47220.22220.0000  plane waves:   4225
 k-point ** :  0.50000.22220.0000  plane waves:   4230
 k-point ** :  0.25000.25000.0000  plane waves:   4246
 k-point ** :  0.27780.25000.0000  plane waves:   4232
 k-point ** :  0.30560.25000.0000  plane waves:   4231
 k-point ** :  0.33330.25000.0000  plane waves:   4226
 k-point ** :  0.36110.25000.0000  plane waves:   4223
 k-point ** :  0.38890.25000.0000  plane waves:   4223
 k-point ** :  0.41670.25000.0000  plane waves:   4223
 k-point ** :  0.44440.25000.0000  plane waves:   4226
 k-point ** :  0.47220.25000.0000  plane waves:   4233
 k-point ** :  0.50000.25000.0000  plane waves:   4216
 k-point ** :  0.27780.27780.0000  plane waves:   4226
 k-point ** :  0.30560.27780.0000  plane waves:   4224
 k-point ** :  0.33330.27780.0000  plane waves:   4226
 k-point ** :  0.36110.27780.0000  plane waves:   4229
 k-point ** :  0.38890.27780.0000  plane waves:   4231
 k-point ** :  0.41670.27780.0000  plane waves:   4222
 k-point ** :  0.44440.27780.0000  plane waves:   4226
 k-point ** :  0.47220.27780.0000  plane waves:   4232
 k-point ** :  0.50000.27780.0000  plane waves:   4236
 k-point ** :  0.30560.30560.0000  plane waves:   4228
 k-point ** :  0.33330.30560.0000  plane waves:   4229
 k-point ** :  0.36110.30560.0000  plane waves:   4232
 k-point ** :  0.38890.30560.0000  plane waves:   4225
 k-point ** :  0.41670.30560.0000  plane waves:   4236
[...]
 k-point ** :  0.47220.44440.4167  plane waves:   4238
 k-point ** :  0.50000.44440.4167  plane waves:   4242
 k-point ** :  0.47220.47220.4167  plane waves:   4248
 k-point ** :  0.50000.47220.4167  plane waves:   4248
 k-point ** :  0.50000.50000.4167  plane waves:   4248
 k-point ** :  0.44440.44440.4444  plane waves:   4242
 k-point ** :  0.47220.44440.4444  plane waves:   4246
 k-point ** :  0.50000.44440.4444  plane waves:   4248
 k-point ** :  0.47220.47220.4444  plane waves:   4248
 k-point ** :  0.50000.47220.4444  plane waves:   4248
 k-point ** :  0.50000.50000.4444  plane waves:   4248
 k-point ** :  0.47220.47220.4722  plane waves:   4242
 k-point ** :  0.50000.47220.4722  plane waves:   4244
 k-point ** :  0.50000.50000.4722  plane waves:   4248
 k-point ** :  0.50000.50000.5000  plane waves:   4224

 maximum and minimum number of plane-waves per node :   4260  4169

 maximum number of plane-waves:   4260
 maximal index in each direction:
   IXMAX= 10   IYMAX= 10   IZMAX= 10
   IXMIN=-10   IYMIN=-10   IZMIN=-10

 WARNING: wrap around error must be expected set NGX to  42
 WARNING: wrap around error must be expected set NGY to  42
 WARNING: wrap around error must be expected set NGZ to  42

 parallel 3dFFT wavefunction:
    minimum data exchange during FFTs selected (reduces bandwidth)
 parallel 3dFFT charge:
    minimum data exchange during FFTs selected (reduces bandwidth)

Broyden mixing: mesh for mixing (old mesh)
   NGX = 21   NGY = 21   NGZ = 21
  (NGX  = 80   NGY  = 80   NGZ  = 80)
 gives a total of   9261 points
 initial charge density was supplied:
 charge density of overlapping atoms calculated
 number of electron   44.0000000 magnetization
 keeping initial charge density in first step

 Maximum index for augmentation-charges        36979 (set IRDMAX)

 First call to EWALD:  gamma=   0.455
 Maximum number of real-space cells 3x 3x 3
 Maximum number of reciprocal cells 3x 3x 3

----------------------------------------- Iteration    1(   1)  ---------------------------------------

 eigenvalue-minimisations  : 85960
 total energy-change (2. order) : 0.3543081E+03  (-0.3083269E+04)
 number of electron   44.0000000 magnetization
 augmentation part    44.0000000 magnetization

 Free energy of the ion-electron system (eV)
  alpha Z        PSCENC =       346.90066096
  Ewald energy   TEWEN  =     -4105.74176193
  -1/2 Hartree   DENC   =     -1476.74177641
  -V(xc)+E(xc)   XCENC  =       173.40177230
  PAW double counting   =      4328.20916945    -4904.30802700
  entropy T*S    EENTRO =        -0.00010154
  eigenvalues    EBANDS =       428.66888396
  atomic energy  EATOM  =      5563.91924406
  free energy    TOTEN  =       354.30806385 eV

  energy without entropy =      354.30816538  energy(sigma->0) =      354.30811461

[...]

 eigenvalue-minimisations  : 85208
 total energy-change (2. order) :-0.3448274E+03  (-0.3292010E+03)
 number of electron   44.0000000 magnetization
 augmentation part    44.0000000 magnetization

[...]

 Broyden mixing:
  rms(total) = 0.13116E+01    rms(broyden)= 0.13116E+01
  rms(prec ) = 0.30698E+01
  weight for this iteration     100.00

[...]

 eigenvalues of (default mixing * dielectric matrix)
  average eigenvalue GAMMA=   0.6207
  0.6207

[...]

 eigenvalue-minimisations  : 57968
 total energy-change (2. order) :-0.1145236E-07  (-0.1267651E-08)
 number of electron   44.0000002 magnetization
 augmentation part    28.9585303 magnetization

 Broyden mixing:
  rms(total) = 0.12652E-05    rms(broyden)= 0.12651E-05
  rms(prec ) = 0.20385E-05
  weight for this iteration     100.00

 eigenvalues of (default mixing * dielectric matrix)
  average eigenvalue GAMMA=   1.6048
  2.7915  2.5556  2.5556  1.9676  0.6528  0.9042  0.9776  0.9776  1.0609

[...]

----------------------------------------- Iteration    1(  15)  ---------------------------------------

 eigenvalue-minimisations  : 53288
 total energy-change (2. order) : 0.6692972E-08  (-0.1128246E-09)
 number of electron   44.0000002 magnetization
 augmentation part    28.9585303 magnetization

 Free energy of the ion-electron system (eV)
  alpha Z        PSCENC =       346.90066096
  Ewald energy   TEWEN  =     -4105.74176193
  -1/2 Hartree   DENC   =     -1396.81919867
  -V(xc)+E(xc)   XCENC  =       169.62848009
  PAW double counting   =      4294.36819361    -4870.51008702
  entropy T*S    EENTRO =        -0.00008350
  eigenvalues    EBANDS =       -15.92612835
  atomic energy  EATOM  =      5563.91924406
  free energy    TOTEN  =       -14.18068076 eV

  energy without entropy =      -14.18059726  energy(sigma->0) =      -14.18063901

 average (electrostatic) potential at core
  the test charge radii are     1.0053
  (the norm of the test charge is              1.0000)
       1 -41.1683       2 -41.1683       3 -41.1683       4 -41.1683

 E-fermi :   2.1127     XC(G=0): -11.5572     alpha+bet : -7.7208
   add alpha+bet to get absolut eigen values

 k-point   1 :       0.0000    0.0000    0.0000
  band No.  band energies     occupation
      1      -5.6903      2.00000
      2      -1.6591      2.00000
      3      -1.6591      2.00000
      4      -1.6591      2.00000
      5      -1.3326      2.00000
      6      -1.3326      2.00000
      7      -1.3326      2.00000
      8      -0.3508      2.00000
      9      -0.3508      2.00000
     10      -0.3508      2.00000
     11       0.2357      2.00000
     12       0.2357      2.00000
     13       0.6270      2.00000
     14       0.6270      2.00000
     15       0.6270      2.00000
     16       0.7363      2.00000
     17       0.7363      2.00000
     18       0.7363      2.00000
     19       0.7363      2.00000
     20       0.7363      2.00000
     21       0.7363      2.00000
     22       3.7734      0.00000
     23       3.7734      0.00000
     24       3.7734      0.00000
     25       7.7961      0.00000
     26       7.7961      0.00000
     27       7.7961      0.00000
     28      13.6279      0.00000
     29      13.6279      0.00000
     30      13.6279      0.00000
     31      13.6279      0.00000
     32      13.6279      0.00000

[...]

 k-point *** :       0.5000    0.5000    0.5000
  band No.  band energies     occupation
      1      -1.8907      2.00000
      2      -1.8907      2.00000
      3      -1.8907      2.00000
      4      -1.8907      2.00000
      5      -0.3669      2.00000
      6      -0.3669      2.00000
      7      -0.3669      2.00000
      8      -0.3669      2.00000
      9      -0.3669      2.00000
     10      -0.3669      2.00000
     11      -0.3669      2.00000
     12      -0.3669      2.00000
     13       0.6374      2.00000
     14       0.6374      2.00000
     15       0.6374      2.00000
     16       0.6374      2.00000
     17       0.6374      2.00000
     18       0.6374      2.00000
     19       0.6374      2.00000
     20       0.6374      2.00000
     21       1.7063      2.00000
     22       1.7063      2.00000
     23       1.7063      2.00000
     24       1.7063      2.00000
     25       4.8715      0.00000
     26       4.8715      0.00000
     27       4.8715      0.00000
     28       4.8715      0.00000
     29      21.0332      0.00000
     30      21.0332      0.00000
     31      21.0332      0.00000
     32      21.0332      0.00000

 soft charge-density along one line, spin component           1
         0         1         2         3         4         5         6         7         8         9
 total charge-density along one line

------------------------ aborting loop because EDIFF is reached ----------------------------------------

  FREE ENERGIE OF THE ION-ELECTRON SYSTEM (eV)
  free  energy   TOTEN  =       -14.180681 eV

  energy  without entropy=      -14.180597  energy(sigma->0) =      -14.180639

  FORCE on cell =-STRESS in cart. coord.  units (eV/reduce length):
  Direction    X        Y        Z        XY       YZ       ZX
  Alpha Z    346.90    346.90    346.90
  Ewald    -1368.58  -1368.58  -1368.58      0.00      0.00      0.00
  Hartree    465.61    465.61    465.61     -0.00     -0.00     -0.00
  E(xc)     -249.27   -249.27   -249.27     -0.00     -0.00     -0.00
  Local      418.40    418.40    418.40     -0.00      0.00      0.00
  n-local   -149.75   -155.28   -156.22      0.30      1.86      0.66
  augment    224.65    224.65    224.65     -0.00     -0.00     -0.00
  Kinetic    317.18    308.93    303.70     -2.79      0.39     -1.13
  Total       -6.11     -6.11     -6.11     -0.00     -0.00      0.00
  in kB     -166.10   -166.10   -166.10     -0.00     -0.00      0.00

 VOLUME and BASIS-vectors are now :
  energy-cutoff  :     1000.00
  volume of cell :       58.93
      direct lattice vectors                 reciprocal lattice vectors
     3.891401921  0.000000000  0.000000000     0.256976797  0.000000000  0.000000000
     0.000000000  3.891401921  0.000000000     0.000000000  0.256976797  0.000000000
     0.000000000  0.000000000  3.891401921     0.000000000  0.000000000  0.256976797

  length of vectors
     3.891401921  3.891401921  3.891401921     0.256976797  0.256976797  0.256976797

 FORCES acting on ions
    electron-ion (+dipol)            ewald-force                    non-local-force                 convergence-correction
   0.901E-16 0.340E-14 0.449E-14   -.188E-13 -.930E-14 -.106E-13   -.714E-27 0.343E-26 0.977E-26   -.724E-13 -.143E-12 -.127E-12
   -.150E-12 -.718E-12 -.441E-11   -.256E-14 0.891E-14 -.105E-13   -.686E-26 -.431E-26 0.869E-26   0.264E-13 0.262E-13 -.124E-12
   -.148E-12 0.688E-14 -.488E-11   0.121E-13 -.775E-14 0.957E-14   0.394E-26 0.170E-25 0.898E-26   0.295E-13 -.124E-12 0.629E-13
   0.187E-15 -.157E-12 -.161E-12   0.897E-14 0.105E-13 0.964E-14   -.166E-26 -.106E-26 -.286E-25   -.718E-13 0.359E-13 0.595E-13
   -.297E-12 -.865E-12 -.945E-11   -.281E-15 0.231E-14 -.187E-14   -.530E-26 0.151E-25 -.115E-26   -.884E-13 -.205E-12 -.128E-12

 POSITION                                       TOTAL-FORCE (eV/Angst)
      0.00000      0.00000      0.00000         0.000000      0.000000      0.000000
      1.94570      1.94570      0.00000         0.000000     -0.000000     -0.000000
      1.94570      0.00000      1.94570         0.000000     -0.000000     -0.000000
      0.00000      1.94570      1.94570        -0.000000     -0.000000     -0.000000
    total drift:                               -0.000000     -0.000000     -0.000000

 mean value of Nose-termostat <S>:     1.000 mean value of <T> :     0.000
 mean temperature <T/S>/<1/S>  :     0.000