 vasp.4.6.28 25Jul05 complex
 executed on             LinuxIFC date 2016.01.20  20:55:26

 INCAR:
 POTCAR:   PAW_PBE Cu 05Jan2001
 POTCAR:   PAW_PBE Cu 05Jan2001
   VRHFIN =Cu: d10 p1

   TITEL  = PAW_PBE Cu 05Jan2001
   POMASS =   63.546; ZVAL   =   11.000    mass and valenz
   ENMAX  =  273.214; ENMIN  =  204.910 eV
   QCUT   =   -4.481; QGAM   =    8.962    optimization parameters

   Description
     l     E      TYP  RCUT    TYP  RCUT
     2   .000     23  2.300
     2   .000     23  2.300
     0   .000     23  2.300
     0   .000     23  2.300
     1  -.200     23  2.300
     1   .000     23  2.300
     3   .000      7   .000

 PAW_PBE Cu 05Jan2001                   :

 POSCAR: Cu
  positions in direct lattice

 ion  position               nearest neighbor table
   1  0.013  0.000  0.000-   9 2.51  11 2.51  17 2.51  21 2.51  25 2.57  27 2.57  29 2.57  31 2.57
                            10 2.64  18 2.64  12 2.64  22 2.64
   2  0.500  0.000  0.000-   9 2.57  10 2.57  11 2.57  12 2.57  17 2.57  18 2.57  21 2.57  22 2.57
                            26 2.57  28 2.57  30 2.57  32 2.57
   3  0.000  0.500  0.000-   9 2.57  10 2.57  11 2.57  12 2.57  19 2.57  20 2.57  23 2.57  24 2.57
                            25 2.57  27 2.57  29 2.57  31 2.57
   4  0.500  0.500  0.000-   9 2.57  10 2.57  11 2.57  12 2.57  19 2.57  20 2.57  23 2.57  24 2.57
                            26 2.57  28 2.57  30 2.57  32 2.57
   5  0.000  0.000  0.500-  13 2.57  14 2.57  15 2.57  16 2.57  17 2.57  18 2.57  21 2.57  22 2.57
                            25 2.57  27 2.57  29 2.57  31 2.57
   6  0.500  0.000  0.500-  13 2.57  14 2.57  15 2.57  16 2.57  17 2.57  18 2.57  21 2.57  22 2.57
                            26 2.57  28 2.57  30 2.57  32 2.57
   7  0.000  0.500  0.500-  13 2.57  14 2.57  15 2.57  16 2.57  19 2.57  20 2.57  23 2.57  24 2.57
                            25 2.57  27 2.57  29 2.57  31 2.57
   8  0.500  0.500  0.500-  13 2.57  14 2.57  15 2.57  16 2.57  19 2.57  20 2.57  23 2.57  24 2.57
                            26 2.57  28 2.57  30 2.57  32 2.57
   9  0.250  0.250  0.000-   1 2.51   2 2.57   3 2.57   4 2.57  17 2.57  19 2.57  21 2.57  23 2.57
                            25 2.57  26 2.57  29 2.57  30 2.57
  10  0.750  0.250  0.000-   2 2.57   3 2.57   4 2.57  18 2.57  20 2.57  22 2.57  24 2.57  25 2.57
                            26 2.57  29 2.57  30 2.57   1 2.64
  11  0.250  0.750  0.000-   1 2.51   2 2.57   3 2.57   4 2.57  17 2.57  19 2.57  21 2.57  23 2.57
                            27 2.57  28 2.57  31 2.57  32 2.57
  12  0.750  0.750  0.000-   2 2.57   3 2.57   4 2.57  18 2.57  20 2.57  22 2.57  24 2.57  27 2.57
                            28 2.57  31 2.57  32 2.57   1 2.64
  13  0.250  0.250  0.500-   5 2.57   6 2.57   7 2.57   8 2.57  17 2.57  19 2.57  21 2.57  23 2.57
                            25 2.57  26 2.57  29 2.57  30 2.57
  14  0.750  0.250  0.500-   5 2.57   6 2.57   7 2.57   8 2.57  18 2.57  20 2.57  22 2.57  24 2.57
                            25 2.57  26 2.57  29 2.57  30 2.57
  15  0.250  0.750  0.500-   5 2.57   6 2.57   7 2.57   8 2.57  17 2.57  19 2.57  21 2.57  23 2.57
                            27 2.57  28 2.57  31 2.57  32 2.57
  16  0.750  0.750  0.500-   5 2.57   6 2.57   7 2.57   8 2.57  18 2.57  20 2.57  22 2.57  24 2.57
                            27 2.57  28 2.57  31 2.57  32 2.57
  17  0.250  0.000  0.250-   1 2.51   2 2.57   5 2.57   6 2.57   9 2.57  11 2.57  13 2.57  15 2.57
                            25 2.57  26 2.57  27 2.57  28 2.57
  18  0.750  0.000  0.250-   2 2.57   5 2.57   6 2.57  10 2.57  12 2.57  14 2.57  16 2.57  25 2.57
                            26 2.57  27 2.57  28 2.57   1 2.64
  19  0.250  0.500  0.250-   3 2.57   4 2.57   7 2.57   8 2.57   9 2.57  11 2.57  13 2.57  15 2.57
                            25 2.57  26 2.57  27 2.57  28 2.57
  20  0.750  0.500  0.250-   3 2.57   4 2.57   7 2.57   8 2.57  10 2.57  12 2.57  14 2.57  16 2.57
                            25 2.57  26 2.57  27 2.57  28 2.57
  21  0.250  0.000  0.750-   1 2.51   2 2.57   5 2.57   6 2.57   9 2.57  11 2.57  13 2.57  15 2.57
                            29 2.57  30 2.57  31 2.57  32 2.57
  22  0.750  0.000  0.750-   2 2.57   5 2.57   6 2.57  10 2.57  12 2.57  14 2.57  16 2.57  29 2.57
                            30 2.57  31 2.57  32 2.57   1 2.64
  23  0.250  0.500  0.750-   3 2.57   4 2.57   7 2.57   8 2.57   9 2.57  11 2.57  13 2.57  15 2.57
                            29 2.57  30 2.57  31 2.57  32 2.57
  24  0.750  0.500  0.750-   3 2.57   4 2.57   7 2.57   8 2.57  10 2.57  12 2.57  14 2.57  16 2.57
                            29 2.57  30 2.57  31 2.57  32 2.57
  25  0.000  0.250  0.250-   3 2.57   5 2.57   7 2.57   9 2.57  10 2.57  13 2.57  14 2.57  17 2.57
                            18 2.57  19 2.57  20 2.57   1 2.57
  26  0.500  0.250  0.250-   2 2.57   4 2.57   6 2.57   8 2.57   9 2.57  10 2.57  13 2.57  14 2.57
                            17 2.57  18 2.57  19 2.57  20 2.57
  27  0.000  0.750  0.250-   3 2.57   5 2.57   7 2.57  11 2.57  12 2.57  15 2.57  16 2.57  17 2.57
                            18 2.57  19 2.57  20 2.57   1 2.57
  28  0.500  0.750  0.250-   2 2.57   4 2.57   6 2.57   8 2.57  11 2.57  12 2.57  15 2.57  16 2.57
                            17 2.57  18 2.57  19 2.57  20 2.57
  29  0.000  0.250  0.750-   3 2.57   5 2.57   7 2.57   9 2.57  10 2.57  13 2.57  14 2.57  21 2.57
                            22 2.57  23 2.57  24 2.57   1 2.57
  30  0.500  0.250  0.750-   2 2.57   4 2.57   6 2.57   8 2.57   9 2.57  10 2.57  13 2.57  14 2.57
                            21 2.57  22 2.57  23 2.57  24 2.57
  31  0.000  0.750  0.750-   3 2.57   5 2.57   7 2.57  11 2.57  12 2.57  15 2.57  16 2.57  21 2.57
                            22 2.57  23 2.57  24 2.57   1 2.57
  32  0.500  0.750  0.750-   2 2.57   4 2.57   6 2.57   8 2.57  11 2.57  12 2.57  15 2.57  16 2.57
                            21 2.57  22 2.57  23 2.57  24 2.57

  LATTYP: Found a simple cubic cell.
 ALAT       =     7.2728316235

  Lattice vectors:

 A1 = (   7.2728316235,   0.0000000000,   0.0000000000)
 A2 = (   0.0000000000,   7.2728316235,   0.0000000000)
 A3 = (   0.0000000000,   0.0000000000,   7.2728316235)
 Subroutine PRICEL returns:
 Original cell was already a primitive cell.

Analysis of symmetry for initial positions (statically):

 Routine SETGRP: Setting up the symmetry group for a
 simple cubic supercell.

 Subroutine GETGRP returns: Found  8 space group operations
 (whereof  8 operations were pure point group operations)
 out of a pool of 48 trial point group operations.

The static configuration has the point symmetry C_4v.

Analysis of symmetry for dynamics (positions and initial velocities):

 Subroutine DYNSYM returns: Found  8 space group operations
 (whereof  8 operations were pure point group operations)
 out of a pool of  8 trial space group operations
 (whereof  8 operations were pure point group operations)
 and found also     1 'primitive' translations

The dynamic configuration has the point symmetry C_4v.

 KPOINTS: Automatic mesh

Automatic generation of k-mesh.
 generate k-points for:   7   7   7

 Subroutine IBZKPT returns following result:

 Found     40 irreducible k-points:

 Following reciprocal coordinates:
            Coordinates               Weight
  0.000000  0.000000  0.000000      1.000000
  0.142857  0.000000  0.000000      2.000000
  0.285714  0.000000  0.000000      2.000000
  0.428571  0.000000  0.000000      2.000000
  0.000000  0.142857  0.000000      4.000000
  0.142857  0.142857  0.000000      8.000000
  0.285714  0.142857  0.000000      8.000000
  0.428571  0.142857  0.000000      8.000000
  0.000000  0.285714  0.000000      4.000000
  0.142857  0.285714  0.000000      8.000000
  0.285714  0.285714  0.000000      8.000000
  0.428571  0.285714  0.000000      8.000000
  0.000000  0.428571  0.000000      4.000000
  0.142857  0.428571  0.000000      8.000000
  0.285714  0.428571  0.000000      8.000000
  0.428571  0.428571  0.000000      8.000000
  0.000000  0.142857  0.142857      4.000000
  0.142857  0.142857  0.142857      8.000000
  0.285714  0.142857  0.142857      8.000000
  0.428571  0.142857  0.142857      8.000000
  0.000000  0.285714  0.142857      8.000000
  0.142857  0.285714  0.142857     16.000000
  0.285714  0.285714  0.142857     16.000000
  0.428571  0.285714  0.142857     16.000000
  0.000000  0.428571  0.142857      8.000000
  0.142857  0.428571  0.142857     16.000000
  0.285714  0.428571  0.142857     16.000000
  0.428571  0.428571  0.142857     16.000000
  0.000000  0.285714  0.285714      4.000000
  0.142857  0.285714  0.285714      8.000000
  0.285714  0.285714  0.285714      8.000000
  0.428571  0.285714  0.285714      8.000000
  0.000000  0.428571  0.285714      8.000000
  0.142857  0.428571  0.285714     16.000000
  0.285714  0.428571  0.285714     16.000000
  0.428571  0.428571  0.285714     16.000000
  0.000000  0.428571  0.428571      4.000000
  0.142857  0.428571  0.428571      8.000000
  0.285714  0.428571  0.428571      8.000000
  0.428571  0.428571  0.428571      8.000000

 Following cartesian coordinates:
            Coordinates               Weight
  0.000000  0.000000  0.000000      1.000000
  0.019643  0.000000  0.000000      2.000000
  0.039285  0.000000  0.000000      2.000000
  0.058928  0.000000  0.000000      2.000000
  0.000000  0.019643  0.000000      4.000000
  0.019643  0.019643  0.000000      8.000000
  0.039285  0.019643  0.000000      8.000000
  0.058928  0.019643  0.000000      8.000000
  0.000000  0.039285  0.000000      4.000000
  0.019643  0.039285  0.000000      8.000000
  0.039285  0.039285  0.000000      8.000000
  0.058928  0.039285  0.000000      8.000000
  0.000000  0.058928  0.000000      4.000000
  0.019643  0.058928  0.000000      8.000000
  0.039285  0.058928  0.000000      8.000000
  0.058928  0.058928  0.000000      8.000000
  0.000000  0.019643  0.019643      4.000000
  0.019643  0.019643  0.019643      8.000000
  0.039285  0.019643  0.019643      8.000000
  0.058928  0.019643  0.019643      8.000000
  0.000000  0.039285  0.019643      8.000000
  0.019643  0.039285  0.019643     16.000000
  0.039285  0.039285  0.019643     16.000000
  0.058928  0.039285  0.019643     16.000000
  0.000000  0.058928  0.019643      8.000000
  0.019643  0.058928  0.019643     16.000000
  0.039285  0.058928  0.019643     16.000000
  0.058928  0.058928  0.019643     16.000000
  0.000000  0.039285  0.039285      4.000000
  0.019643  0.039285  0.039285      8.000000
  0.039285  0.039285  0.039285      8.000000
  0.058928  0.039285  0.039285      8.000000
  0.000000  0.058928  0.039285      8.000000
  0.019643  0.058928  0.039285     16.000000
  0.039285  0.058928  0.039285     16.000000
  0.058928  0.058928  0.039285     16.000000
  0.000000  0.058928  0.058928      4.000000
  0.019643  0.058928  0.058928      8.000000
  0.039285  0.058928  0.058928      8.000000
  0.058928  0.058928  0.058928      8.000000

 I would recommend the setting:
   dimension x,y,z NGX =    53 NGY =   53 NGZ =   53
 SYSTEM =  unknown system
 POSCAR =  Cu

 Startparameter for this run:
   NWRITE =      2    write-flag & timer
[...]
  average eigenvalue GAMMA=   0.6912
  0.6912

[...]

 eigenvalue-minimisations  :  9616
 total energy-change (2. order) : 0.9105861E-07  (-0.4871745E-09)
 number of electron  351.9999998 magnetization
 augmentation part   230.1598666 magnetization

 Broyden mixing:
  rms(total) = 0.15186E-04    rms(broyden)= 0.14987E-04
  rms(prec ) = 0.22114E-04
  weight for this iteration     100.00

 eigenvalues of (default mixing * dielectric matrix)
  average eigenvalue GAMMA=   1.1480
  2.6002  2.6002  2.2724  2.2724  1.6468  1.0527  1.0527  1.0721  0.9275  0.6939
  0.4794  0.3696  0.3530  0.3352  0.3264  0.3127

[...]

----------------------------------------- Iteration    1(  22)  ---------------------------------------

 eigenvalue-minimisations  :  9600
 total energy-change (2. order) :-0.3026798E-08  (-0.1235051E-09)
 number of electron  351.9999998 magnetization
 augmentation part   230.1598666 magnetization

 Free energy of the ion-electron system (eV)
  alpha Z        PSCENC =      3400.89143748
  Ewald energy   TEWEN  =    -35146.67149763
  -1/2 Hartree   DENC   =     -9847.56505126
  -V(xc)+E(xc)   XCENC  =      1368.73850967
  PAW double counting   =     35062.94658006   -39693.46232239
  entropy T*S    EENTRO =        -0.00102354
  eigenvalues    EBANDS =       224.85329792
  atomic energy  EATOM  =     44511.25856501
  free energy    TOTEN  =      -119.01150469 eV

  energy without entropy =     -119.01048115  energy(sigma->0) =     -119.01099292

 average (electrostatic) potential at core
  the test charge radii are     1.0053
  (the norm of the test charge is              1.0000)
       1 -40.0461       2 -40.0419       3 -40.0417       4 -40.0417       5 -40.0417
       6 -40.0417       7 -40.0417       8 -40.0418       9 -40.0550      10 -40.0298
      11 -40.0550      12 -40.0298      13 -40.0423      14 -40.0416      15 -40.0423
      16 -40.0416      17 -40.0550      18 -40.0298      19 -40.0423      20 -40.0416
      21 -40.0550      22 -40.0298      23 -40.0423      24 -40.0416      25 -40.0414
      26 -40.0420      27 -40.0414      28 -40.0420      29 -40.0414      30 -40.0420
      31 -40.0414      32 -40.0420

 E-fermi :   3.6391     XC(G=0): -12.6971     alpha+bet : -9.4615
   add alpha+bet to get absolut eigen values

 k-point   1 :       0.0000    0.0000    0.0000
  band No.  band energies     occupation
      1      -5.5738      2.00000
      2      -2.8719      2.00000
      3      -2.8420      2.00000
      4      -2.8419      2.00000
      5      -2.8419      2.00000
      6      -2.8418      2.00000
      7      -2.8136      2.00000
      8      -1.3543      2.00000
      9      -1.3543      2.00000
     10      -1.3539      2.00000
     11      -1.3536      2.00000
     12      -1.1544      2.00000
     13      -1.1518      2.00000
     14      -1.1513      2.00000
     15      -1.0076      2.00000
     16      -0.9893      2.00000
     17      -0.9893      2.00000
     18      -0.9783      2.00000
     19      -0.9772      2.00000
     20      -0.9771      2.00000
     21      -0.9761      2.00000
     22      -0.9761      2.00000
     23      -0.9737      2.00000
     24      -0.9639      2.00000
     25      -0.9639      2.00000
     26      -0.9428      2.00000
     27      -0.7119      2.00000
     28      -0.7107      2.00000
     29      -0.7107      2.00000
     30      -0.4480      2.00000
     31      -0.4288      2.00000
     32      -0.4287      2.00000
     33      -0.4287      2.00000
     34      -0.4284      2.00000
     35      -0.4128      2.00000
     36      -0.0717      2.00000
     37      -0.0542      2.00000
     38      -0.0542      2.00000
     39      -0.0517      2.00000
     40      -0.0515      2.00000
     41      -0.0389      2.00000
     42       0.1184      2.00000
     43       0.1307      2.00000
     44       0.1307      2.00000
     45       0.1532      2.00000
     46       0.1538      2.00000
     47       0.1538      2.00000
     48       0.1539      2.00000
     49       0.1550      2.00000
     50       0.1552      2.00000
     51       0.1560      2.00000
     52       0.1560      2.00000
     53       0.1576      2.00000
     54       0.1576      2.00000
     55       0.1585      2.00000
     56       0.1589      2.00000
     57       0.1589      2.00000
     58       0.1589      2.00000
     59       0.1604      2.00000
     60       0.1604      2.00000
[...]
    202       9.8232      0.00000
    203      10.6331      0.00000
    204      10.6365      0.00000
    205      10.6365      0.00000
    206      11.8449      0.00000
    207      11.8738      0.00000
    208      11.8739      0.00000
    209      11.8752      0.00000
    210      11.8752      0.00000
    211      11.8963      0.00000
    212      12.3148      0.00000
    213      12.3176      0.00000
    214      12.3202      0.00000
    215      12.3211      0.00000
    216      12.3222      0.00000

[...]

 k-point  40 :       0.4286    0.4286    0.4286
  band No.  band energies     occupation
      1      -3.9952      2.00000
      2      -3.6315      2.00000
      3      -3.6169      2.00000
      4      -3.6035      2.00000
      5      -3.2733      2.00000
      6      -3.2601      2.00000
      7      -3.2464      2.00000
      8      -2.9319      2.00000
      9      -0.8851      2.00000
     10      -0.8733      2.00000
     11      -0.8647      2.00000
     12      -0.7963      2.00000
     13      -0.7943      2.00000
     14      -0.7852      2.00000
     15      -0.7834      2.00000
     16      -0.7779      2.00000
     17      -0.7767      2.00000
     18      -0.7736      2.00000
     19      -0.7698      2.00000
     20      -0.7654      2.00000
     21      -0.7494      2.00000
     22      -0.7477      2.00000
     23      -0.7452      2.00000
     24      -0.6588      2.00000
     25      -0.6528      2.00000
     26      -0.6458      2.00000
     27      -0.6452      2.00000
     28      -0.6388      2.00000
     29      -0.6362      2.00000
     30      -0.6205      2.00000
     31      -0.6121      2.00000
     32      -0.6019      2.00000
     33      -0.3141      2.00000
     34      -0.3093      2.00000
     35      -0.3074      2.00000
     36      -0.2282      2.00000
     37      -0.2170      2.00000
     38      -0.2150      2.00000
     39      -0.2128      2.00000
     40      -0.2094      2.00000
     41      -0.2093      2.00000
     42      -0.2063      2.00000
     43      -0.2060      2.00000
     44      -0.1986      2.00000
     45      -0.1233      2.00000
     46      -0.1149      2.00000
     47      -0.1122      2.00000
     48      -0.1040      2.00000
     49      -0.1009      2.00000
     50      -0.0965      2.00000
     51      -0.0961      2.00000
     52      -0.0925      2.00000
     53      -0.0838      2.00000
     54       0.0169      2.00000
     55       0.0178      2.00000
     56       0.0200      2.00000
     57       0.3698      2.00000
     58       0.3817      2.00000
     59       0.3844      2.00000
     60       0.3876      2.00000
[...]
    202      10.0854      0.00000
    203      10.0988      0.00000
    204      10.1045      0.00000
    205      10.5296      0.00000
    206      10.5338      0.00000
    207      10.5467      0.00000
    208      10.5471      0.00000
    209      10.5620      0.00000
    210      10.5658      0.00000
    211      11.1836      0.00000
    212      11.1887      0.00000
    213      11.1925      0.00000
    214      11.6526      0.00000
    215      11.6587      0.00000
    216      11.6640      0.00000

 soft charge-density along one line, spin component           1
         0         1         2         3         4         5         6         7         8         9
 total charge-density along one line

------------------------ aborting loop because EDIFF is reached ----------------------------------------

  FREE ENERGIE OF THE ION-ELECTRON SYSTEM (eV)
  free  energy   TOTEN  =      -119.011505 eV

  energy  without entropy=     -119.010481  energy(sigma->0) =     -119.010993

  FORCE on cell =-STRESS in cart. coord.  units (eV/reduce length):
  Direction    X        Y        Z        XY       YZ       ZX
  Alpha Z   3400.89   3400.89   3400.89
  Ewald   -11718.61 -11714.10 -11714.10     -0.00     -0.00     -0.00
  Hartree   3280.36   3283.60   3283.60     -0.00     -0.00     -0.00
  E(xc)    -2004.39  -2004.39  -2004.39     -0.00     -0.00     -0.00
  Local     3890.42   3882.68   3882.68     -0.00     -0.00     -0.00
  n-local  -1171.71  -1174.63  -1168.77      1.84      1.00      0.20
  augment   1809.17   1809.17   1809.17     -0.00     -0.00     -0.00
  Kinetic   2513.92   2511.49   2516.34      0.23     -1.11     -2.41
  Total        0.04      0.06      0.06      0.00      0.00     -0.00
  in kB        0.19      0.26      0.26      0.00      0.00     -0.00

 VOLUME and BASIS-vectors are now :
  energy-cutoff  :      500.00
  volume of cell :      384.69
      direct lattice vectors                 reciprocal lattice vectors
     7.272831623  0.000000000  0.000000000     0.137498027  0.000000000  0.000000000
     0.000000000  7.272831623  0.000000000     0.000000000  0.137498027  0.000000000
     0.000000000  0.000000000  7.272831623     0.000000000  0.000000000  0.137498027

  length of vectors
     7.272831623  7.272831623  7.272831623     0.137498027  0.137498027  0.137498027

 FORCES acting on ions
    electron-ion (+dipol)            ewald-force                    non-local-force                 convergence-correction
   0.530E+02 -.176E-12 -.515E-05   -.534E+02 -.888E-14 -.338E-13   -.214E+00 0.000E+00 0.000E+00   -.352E-04 -.144E-13 -.133E-12
   -.139E+02 -.127E-12 0.523E-05   0.141E+02 0.213E-13 0.163E-12   -.168E+00 0.000E+00 0.000E+00   -.289E-04 -.440E-13 -.105E-12
   0.442E+01 0.918E-12 0.370E-09   -.446E+01 -.444E-14 0.124E-12   0.396E-01 0.000E+00 -.678E-20   0.246E-04 -.283E-13 -.188E-12
   -.357E+01 -.474E-11 0.374E-09   0.351E+01 0.924E-13 0.163E-12   0.642E-01 0.000E+00 0.542E-19   -.443E-04 0.392E-13 -.211E-12
   0.442E+01 -.211E-12 -.251E-07   -.446E+01 0.400E-13 0.462E-13   0.396E-01 0.000E+00 0.305E-19   0.311E-04 0.189E-13 -.465E-13
   -.357E+01 -.162E-12 -.251E-07   0.351E+01 -.355E-13 0.711E-14   0.642E-01 -.542E-19 0.000E+00   -.453E-04 -.387E-13 -.123E-12
   0.185E+01 0.932E-12 -.173E-10   -.184E+01 0.133E-13 -.178E-13   -.123E-01 -.813E-19 0.000E+00   0.126E-04 -.390E-13 -.396E-13
   -.173E+01 -.457E-11 -.187E-10   0.172E+01 0.924E-13 -.107E-12   0.711E-02 0.542E-19 -.136E-19   -.561E-05 0.308E-13 -.131E-12
   -.652E+01 -.134E+02 0.187E-08   0.657E+01 0.135E+02 0.711E-14   0.418E-01 0.569E-02 0.000E+00   0.540E-06 -.349E-05 -.214E-12
   -.699E+01 0.124E+02 0.189E-08   0.700E+01 -.124E+02 0.107E-13   0.546E-01 -.189E-01 0.542E-19   0.366E-04 -.368E-04 -.156E-12
   -.652E+01 0.134E+02 0.187E-08   0.657E+01 -.135E+02 0.782E-13   0.418E-01 -.569E-02 0.542E-19   0.540E-06 0.349E-05 -.152E-12
   -.699E+01 -.124E+02 0.189E-08   0.700E+01 0.124E+02 0.192E-12   0.546E-01 0.189E-01 0.163E-18   0.366E-04 0.368E-04 -.106E-12
   -.859E-01 -.107E+01 0.334E-10   0.109E+00 0.108E+01 0.995E-13   -.205E-01 -.190E-02 0.271E-19   0.215E-04 -.791E-05 -.106E-12
   -.300E+00 0.106E+01 0.288E-10   0.323E+00 -.106E+01 -.107E-13   -.206E-01 0.177E-02 -.474E-19   -.149E-04 0.187E-04 -.463E-13
   -.859E-01 0.107E+01 0.338E-10   0.109E+00 -.108E+01 -.782E-13   -.205E-01 0.190E-02 0.339E-19   0.215E-04 0.791E-05 -.109E-12
   -.300E+00 -.106E+01 0.279E-10   0.323E+00 0.106E+01 -.782E-13   -.206E-01 -.177E-02 0.407E-19   -.149E-04 -.187E-04 -.661E-13
   -.652E+01 -.139E-12 -.134E+02   0.657E+01 -.453E-13 0.135E+02   0.418E-01 -.217E-18 0.569E-02   -.594E-06 -.258E-13 -.263E-05
   -.699E+01 -.176E-12 0.124E+02   0.700E+01 -.109E-12 -.124E+02   0.546E-01 0.108E-18 -.189E-01   0.355E-04 -.301E-13 -.376E-04
   -.859E-01 0.762E-12 -.107E+01   0.109E+00 -.790E-13 0.108E+01   -.205E-01 -.108E-18 -.190E-02   0.217E-04 0.304E-13 -.704E-05
   -.300E+00 0.378E-11 0.106E+01   0.323E+00 -.293E-13 -.106E+01   -.206E-01 -.217E-18 0.177E-02   -.146E-04 0.292E-13 0.179E-04
   -.652E+01 -.184E-12 0.134E+02   0.657E+01 -.364E-13 -.135E+02   0.418E-01 0.217E-18 -.569E-02   -.594E-06 0.607E-14 0.263E-05
   -.699E+01 -.200E-12 -.124E+02   0.700E+01 -.150E-12 0.124E+02   0.546E-01 0.000E+00 0.189E-01   0.355E-04 0.218E-14 0.376E-04
   -.859E-01 0.119E-11 0.107E+01   0.109E+00 -.773E-13 -.108E+01   -.205E-01 -.108E-18 0.190E-02   0.217E-04 -.902E-15 0.704E-05
   -.300E+00 0.339E-11 -.106E+01   0.323E+00 -.204E-13 0.106E+01   -.206E-01 0.000E+00 -.177E-02   -.146E-04 -.387E-14 -.179E-04
   0.837E+01 0.330E+00 0.330E+00   -.841E+01 -.331E+00 -.331E+00   0.304E-01 -.734E-03 -.734E-03   0.109E-04 -.264E-04 -.264E-04
   -.469E+01 -.974E-01 -.974E-01   0.474E+01 0.993E-01 0.993E-01   -.404E-01 -.176E-02 -.176E-02   -.306E-04 0.104E-04 0.105E-04
   0.837E+01 -.330E+00 0.330E+00   -.841E+01 0.331E+00 -.331E+00   0.304E-01 0.734E-03 -.734E-03   0.109E-04 0.264E-04 -.264E-04
   -.469E+01 0.974E-01 -.974E-01   0.474E+01 -.993E-01 0.993E-01   -.404E-01 0.176E-02 -.176E-02   -.306E-04 -.104E-04 0.105E-04
   0.837E+01 0.330E+00 -.330E+00   -.841E+01 -.331E+00 0.331E+00   0.304E-01 -.734E-03 0.734E-03   0.109E-04 -.264E-04 0.264E-04
   -.469E+01 -.974E-01 0.974E-01   0.474E+01 0.993E-01 -.993E-01   -.404E-01 -.176E-02 0.176E-02   -.306E-04 0.104E-04 -.105E-04
   0.837E+01 -.330E+00 -.330E+00   -.841E+01 0.331E+00 0.331E+00   0.304E-01 0.734E-03 0.734E-03   0.109E-04 0.264E-04 0.264E-04
   -.469E+01 0.974E-01 0.974E-01   0.474E+01 -.993E-01 -.993E-01   -.404E-01 0.176E-02 0.176E-02   -.306E-04 -.104E-04 -.105E-04
   -.103E-02 0.359E-10 0.135E-07   0.888E-13 0.520E-14 0.172E-12   0.942E-03 -.867E-18 -.434E-17   0.143E-05 -.719E-12 -.399E-11

 POSITION                                       TOTAL-FORCE (eV/Angst)
      0.09091      0.00000      0.00000        -0.598559     -0.000000      0.000000
      3.63642      0.00000      0.00000         0.010318     -0.000000      0.000000
      0.00000      3.63642      0.00000        -0.003859      0.000000     -0.000000
      3.63642      3.63642      0.00000         0.000474      0.000000     -0.000000
      0.00000      0.00000      3.63642        -0.003859      0.000000      0.000000
      3.63642      0.00000      3.63642         0.000474      0.000000     -0.000000
      0.00000      3.63642      3.63642         0.000240      0.000000     -0.000000
      3.63642      3.63642      3.63642        -0.002725      0.000000      0.000000
      1.81821      1.81821      0.00000         0.083039      0.098535      0.000000
      5.45462      1.81821      0.00000         0.062327     -0.069324     -0.000000
      1.81821      5.45462      0.00000         0.083039     -0.098535     -0.000000
      5.45462      5.45462      0.00000         0.062327      0.069324     -0.000000
      1.81821      1.81821      3.63642         0.002575      0.001775      0.000000
      5.45462      1.81821      3.63642         0.002515     -0.001854      0.000000
      1.81821      5.45462      3.63642         0.002575     -0.001775     -0.000000
      5.45462      5.45462      3.63642         0.002515      0.001854      0.000000
      1.81821      0.00000      1.81821         0.083039      0.000000      0.098535
      5.45462      0.00000      1.81821         0.062327      0.000000     -0.069324
      1.81821      3.63642      1.81821         0.002575      0.000000      0.001775
      5.45462      3.63642      1.81821         0.002515      0.000000     -0.001854
      1.81821      0.00000      5.45462         0.083039     -0.000000     -0.098535
      5.45462      0.00000      5.45462         0.062327      0.000000      0.069324
      1.81821      3.63642      5.45462         0.002575     -0.000000     -0.001775
      5.45462      3.63642      5.45462         0.002515      0.000000      0.001854
      0.00000      1.81821      1.81821        -0.006886     -0.001480     -0.001480
      3.63642      1.81821      1.81821         0.005805      0.000148      0.000148
      0.00000      5.45462      1.81821        -0.006886      0.001480     -0.001480
      3.63642      5.45462      1.81821         0.005805     -0.000148      0.000148
      0.00000      1.81821      5.45462        -0.006886     -0.001480      0.001480
      3.63642      1.81821      5.45462         0.005805      0.000148     -0.000148
      0.00000      5.45462      5.45462        -0.006886      0.001480      0.001480
      3.63642      5.45462      5.45462         0.005805     -0.000148     -0.000148
    total drift:                               -0.000087      0.000000      0.000000

 mean value of Nose-termostat <S>:     1.000 mean value of <T> :     0.000
 mean temperature <T/S>/<1/S>  :     0.000