 vasp.4.6.28 25Jul05 complex
 executed on             LinuxIFC date 2016.01.16  19:02:31

 INCAR:
 POTCAR:   PAW_PBE Cu 05Jan2001
 POTCAR:   PAW_PBE Cu 05Jan2001
   VRHFIN =Cu: d10 p1

   TITEL  = PAW_PBE Cu 05Jan2001
   POMASS =   63.546; ZVAL   =   11.000    mass and valenz
   ENMAX  =  273.214; ENMIN  =  204.910 eV
   QCUT   =   -4.481; QGAM   =    8.962    optimization parameters

   Description
     l     E      TYP  RCUT    TYP  RCUT
     2   .000     23  2.300
     2   .000     23  2.300
     0   .000     23  2.300
     0   .000     23  2.300
     1  -.200     23  2.300
     1   .000     23  2.300
     3   .000      7   .000

 PAW_PBE Cu 05Jan2001                   :

 POSCAR: Cu
  positions in direct lattice

 ion  position               nearest neighbor table
   1  0.000  0.000  0.000-   2 2.57   3 2.57   4 2.57   3 2.57   4 2.57   2 2.57   4 2.57   4 2.57
                             2 2.57   3 2.57   3 2.57   2 2.57
   2  0.500  0.500  0.000-   1 2.57   3 2.57   4 2.57   3 2.57   4 2.57   1 2.57   3 2.57   3 2.57
                             1 2.57   4 2.57   4 2.57   1 2.57
   3  0.500  0.000  0.500-   1 2.57   2 2.57   4 2.57   1 2.57   2 2.57   2 2.57   4 2.57   2 2.57
                             1 2.57   4 2.57   1 2.57   4 2.57
   4  0.000  0.500  0.500-   1 2.57   2 2.57   3 2.57   1 2.57   2 2.57   1 2.57   3 2.57   1 2.57
                             2 2.57   3 2.57   2 2.57   3 2.57

  LATTYP: Found a simple cubic cell.
 ALAT       =     3.6362067997

  Lattice vectors:

 A1 = (   3.6362067997,   0.0000000000,   0.0000000000)
 A2 = (   0.0000000000,   3.6362067997,   0.0000000000)
 A3 = (   0.0000000000,   0.0000000000,   3.6362067997)
 Subroutine PRICEL returns following result:

  LATTYP: Found a face centered cubic cell.
 ALAT       =     3.6362067997

  Lattice vectors:

 A1 = (   1.8181033999,   1.8181033999,   0.0000000000)
 A2 = (   1.8181033999,   0.0000000000,  -1.8181033999)
 A3 = (   0.0000000000,   1.8181033999,  -1.8181033999)

   4 primitive cells build up your supercell.

Analysis of symmetry for initial positions (statically):

 Routine SETGRP: Setting up the symmetry group for a
 simple cubic supercell.

 Subroutine GETGRP returns: Found 48 space group operations
 (whereof 48 operations were pure point group operations)
 out of a pool of 48 trial point group operations.

The static configuration has the point symmetry O_h .

Analysis of symmetry for dynamics (positions and initial velocities):

 Subroutine DYNSYM returns: Found 48 space group operations
 (whereof 48 operations were pure point group operations)
 out of a pool of 48 trial space group operations
 (whereof 48 operations were pure point group operations)
 and found also     4 'primitive' translations

The dynamic configuration has the point symmetry O_h .

 KPOINTS: Automatic mesh

Automatic generation of k-mesh.
 generate k-points for:  14  14  14

 Subroutine IBZKPT returns following result:

 Found    120 irreducible k-points:

 Following reciprocal coordinates:
            Coordinates               Weight
  0.000000  0.000000  0.000000      1.000000
  0.071429  0.000000  0.000000      6.000000
  0.142857  0.000000  0.000000      6.000000
  0.214286  0.000000  0.000000      6.000000
  0.285714  0.000000  0.000000      6.000000
  0.357143  0.000000  0.000000      6.000000
  0.428571  0.000000  0.000000      6.000000
  0.500000  0.000000  0.000000      3.000000
  0.071429  0.071429  0.000000     12.000000
  0.142857  0.071429  0.000000     24.000000
  0.214286  0.071429  0.000000     24.000000
  0.285714  0.071429  0.000000     24.000000
  0.357143  0.071429  0.000000     24.000000
  0.428571  0.071429  0.000000     24.000000
  0.500000  0.071429  0.000000     12.000000
  0.142857  0.142857  0.000000     12.000000
  0.214286  0.142857  0.000000     24.000000
  0.285714  0.142857  0.000000     24.000000
  0.357143  0.142857  0.000000     24.000000
  0.428571  0.142857  0.000000     24.000000
  0.500000  0.142857  0.000000     12.000000
  0.214286  0.214286  0.000000     12.000000
  0.285714  0.214286  0.000000     24.000000
  0.357143  0.214286  0.000000     24.000000
  0.428571  0.214286  0.000000     24.000000
  0.500000  0.214286  0.000000     12.000000
  0.285714  0.285714  0.000000     12.000000
  0.357143  0.285714  0.000000     24.000000
  0.428571  0.285714  0.000000     24.000000
  0.500000  0.285714  0.000000     12.000000
  0.357143  0.357143  0.000000     12.000000
  0.428571  0.357143  0.000000     24.000000
  0.500000  0.357143  0.000000     12.000000
  0.428571  0.428571  0.000000     12.000000
  0.500000  0.428571  0.000000     12.000000
  0.500000  0.500000  0.000000      3.000000
  0.071429  0.071429  0.071429      8.000000
  0.142857  0.071429  0.071429     24.000000
  0.214286  0.071429  0.071429     24.000000
  0.285714  0.071429  0.071429     24.000000
  0.357143  0.071429  0.071429     24.000000
  0.428571  0.071429  0.071429     24.000000
  0.500000  0.071429  0.071429     12.000000
  0.142857  0.142857  0.071429     24.000000
  0.214286  0.142857  0.071429     48.000000
  0.285714  0.142857  0.071429     48.000000
  0.357143  0.142857  0.071429     48.000000
  0.428571  0.142857  0.071429     48.000000
  0.500000  0.142857  0.071429     24.000000
  0.214286  0.214286  0.071429     24.000000
  0.285714  0.214286  0.071429     48.000000
  0.357143  0.214286  0.071429     48.000000
  0.428571  0.214286  0.071429     48.000000
  0.500000  0.214286  0.071429     24.000000
  0.285714  0.285714  0.071429     24.000000
  0.357143  0.285714  0.071429     48.000000
  0.428571  0.285714  0.071429     48.000000
  0.500000  0.285714  0.071429     24.000000
  0.357143  0.357143  0.071429     24.000000
  0.428571  0.357143  0.071429     48.000000
[...]
  0.428571  0.357143  0.285714     48.000000
  0.500000  0.357143  0.285714     24.000000
  0.428571  0.428571  0.285714     24.000000
  0.500000  0.428571  0.285714     24.000000
  0.500000  0.500000  0.285714      6.000000
  0.357143  0.357143  0.357143      8.000000
  0.428571  0.357143  0.357143     24.000000
  0.500000  0.357143  0.357143     12.000000
  0.428571  0.428571  0.357143     24.000000
  0.500000  0.428571  0.357143     24.000000
  0.500000  0.500000  0.357143      6.000000
  0.428571  0.428571  0.428571      8.000000
  0.500000  0.428571  0.428571     12.000000
  0.500000  0.500000  0.428571      6.000000
  0.500000  0.500000  0.500000      1.000000

 Following cartesian coordinates:
            Coordinates               Weight
  0.000000  0.000000  0.000000      1.000000
  0.019644  0.000000  0.000000      6.000000
  0.039287  0.000000  0.000000      6.000000
  0.058931  0.000000  0.000000      6.000000
  0.078575  0.000000  0.000000      6.000000
  0.098219  0.000000  0.000000      6.000000
  0.117862  0.000000  0.000000      6.000000
  0.137506  0.000000  0.000000      3.000000
  0.019644  0.019644  0.000000     12.000000
  0.039287  0.019644  0.000000     24.000000
  0.058931  0.019644  0.000000     24.000000
  0.078575  0.019644  0.000000     24.000000
  0.098219  0.019644  0.000000     24.000000
  0.117862  0.019644  0.000000     24.000000
  0.137506  0.019644  0.000000     12.000000
  0.039287  0.039287  0.000000     12.000000
  0.058931  0.039287  0.000000     24.000000
  0.078575  0.039287  0.000000     24.000000
  0.098219  0.039287  0.000000     24.000000
  0.117862  0.039287  0.000000     24.000000
  0.137506  0.039287  0.000000     12.000000
  0.058931  0.058931  0.000000     12.000000
  0.078575  0.058931  0.000000     24.000000
  0.098219  0.058931  0.000000     24.000000
  0.117862  0.058931  0.000000     24.000000
  0.137506  0.058931  0.000000     12.000000
  0.078575  0.078575  0.000000     12.000000
  0.098219  0.078575  0.000000     24.000000
  0.117862  0.078575  0.000000     24.000000
  0.137506  0.078575  0.000000     12.000000
  0.098219  0.098219  0.000000     12.000000
  0.117862  0.098219  0.000000     24.000000
  0.137506  0.098219  0.000000     12.000000
  0.117862  0.117862  0.000000     12.000000
  0.137506  0.117862  0.000000     12.000000
  0.137506  0.137506  0.000000      3.000000
  0.019644  0.019644  0.019644      8.000000
  0.039287  0.019644  0.019644     24.000000
  0.058931  0.019644  0.019644     24.000000
  0.078575  0.019644  0.019644     24.000000
  0.098219  0.019644  0.019644     24.000000
  0.117862  0.019644  0.019644     24.000000
  0.137506  0.019644  0.019644     12.000000
  0.039287  0.039287  0.019644     24.000000
  0.058931  0.039287  0.019644     48.000000
  0.078575  0.039287  0.019644     48.000000
  0.098219  0.039287  0.019644     48.000000
  0.117862  0.039287  0.019644     48.000000
  0.137506  0.039287  0.019644     24.000000
  0.058931  0.058931  0.019644     24.000000
  0.078575  0.058931  0.019644     48.000000
  0.098219  0.058931  0.019644     48.000000
  0.117862  0.058931  0.019644     48.000000
  0.137506  0.058931  0.019644     24.000000
  0.078575  0.078575  0.019644     24.000000
  0.098219  0.078575  0.019644     48.000000
  0.117862  0.078575  0.019644     48.000000
  0.137506  0.078575  0.019644     24.000000
  0.098219  0.098219  0.019644     24.000000
  0.117862  0.098219  0.019644     48.000000
[...]
  0.117862  0.098219  0.078575     48.000000
  0.137506  0.098219  0.078575     24.000000
  0.117862  0.117862  0.078575     24.000000
  0.137506  0.117862  0.078575     24.000000
  0.137506  0.137506  0.078575      6.000000
  0.098219  0.098219  0.098219      8.000000
  0.117862  0.098219  0.098219     24.000000
  0.137506  0.098219  0.098219     12.000000
  0.117862  0.117862  0.098219     24.000000
  0.137506  0.117862  0.098219     24.000000
  0.137506  0.137506  0.098219      6.000000
  0.117862  0.117862  0.117862      8.000000
  0.137506  0.117862  0.117862     12.000000
  0.137506  0.137506  0.117862      6.000000
  0.137506  0.137506  0.137506      1.000000

 I would recommend the setting:
   dimension x,y,z NGX =    27 NGY =   27 NGZ =   27
 SYSTEM =  unknown system
 POSCAR =  Cu

 Startparameter for this run:
   NWRITE =      2    write-flag & timer
   PREC   = accura    medium, high low
   ISTART =      0    job   : 0-new  1-cont  2-samecut
   ICHARG =      2    charge: 1-file 2-atom 10-const
   ISPIN  =      1    spin polarized calculation?
   LNONCOLLINEAR =      F non collinear calculations
   LSORBIT =      F    spin-orbit coupling
   INIWAV =      1    electr: 0-lowe 1-rand  2-diag
   LASPH  =      F    aspherical Exc in radial PAW
   METAGGA=      F    non-selfconsistent MetaGGA calc.

 Electronic Relaxation 1
   ENCUT  =  500.0 eV  36.75 Ry    6.06 a.u.   6.63  6.63  6.63*2*pi/ulx,y,z
   ENINI  =  500.0     initial cutoff
   ENAUG  =  516.5 eV  augmentation charge cutoff
   NELM   =     60;   NELMIN=  2; NELMDL= -5     # of ELM steps
   EDIFF  = 0.1E-07   stopping-criterion for ELM
   LREAL  =      F    real-space projection
   LCOMPAT=      F    compatible to vasp.4.4
   LREAL_COMPAT= F    compatible to vasp.4.5.1-3
   GGA_COMPAT  = T    GGA compatible to vasp.4.4-vasp.4.6
   LMAXPAW     = -100 max onsite density
   LMAXMIX     =    2 max onsite mixed and CHGCAR
   VOSKOWN=      0    Vosko Wilk Nusair interpolation
[...]
 k-point 41 :  0.35710.07140.0714  plane waves:   1216
 k-point 42 :  0.42860.07140.0714  plane waves:   1220
 k-point 43 :  0.50000.07140.0714  plane waves:   1208
 k-point 44 :  0.14290.14290.0714  plane waves:   1237
 k-point 45 :  0.21430.14290.0714  plane waves:   1234
 k-point 46 :  0.28570.14290.0714  plane waves:   1225
 k-point 47 :  0.35710.14290.0714  plane waves:   1220
 k-point 48 :  0.42860.14290.0714  plane waves:   1219
 k-point 49 :  0.50000.14290.0714  plane waves:   1218
 k-point 50 :  0.21430.21430.0714  plane waves:   1229
 k-point 51 :  0.28570.21430.0714  plane waves:   1221
 k-point 52 :  0.35710.21430.0714  plane waves:   1222
 k-point 53 :  0.42860.21430.0714  plane waves:   1220
 k-point 54 :  0.50000.21430.0714  plane waves:   1214
 k-point 55 :  0.28570.28570.0714  plane waves:   1220
 k-point 56 :  0.35710.28570.0714  plane waves:   1223
 k-point 57 :  0.42860.28570.0714  plane waves:   1214
 k-point 58 :  0.50000.28570.0714  plane waves:   1224
 k-point 59 :  0.35710.35710.0714  plane waves:   1208
 k-point 60 :  0.42860.35710.0714  plane waves:   1217
[...]
 k-point 85 :  0.50000.50000.1429  plane waves:   1224
 k-point 86 :  0.21430.21430.2143  plane waves:   1226
 k-point 87 :  0.28570.21430.2143  plane waves:   1220
 k-point 88 :  0.35710.21430.2143  plane waves:   1225
 k-point 89 :  0.42860.21430.2143  plane waves:   1221
 k-point 90 :  0.50000.21430.2143  plane waves:   1222
 k-point 91 :  0.28570.28570.2143  plane waves:   1228
 k-point 92 :  0.35710.28570.2143  plane waves:   1216
 k-point 93 :  0.42860.28570.2143  plane waves:   1217
 k-point 94 :  0.50000.28570.2143  plane waves:   1220
 k-point 95 :  0.35710.35710.2143  plane waves:   1219
 k-point 96 :  0.42860.35710.2143  plane waves:   1218
 k-point 97 :  0.50000.35710.2143  plane waves:   1214
 k-point 98 :  0.42860.42860.2143  plane waves:   1213
 k-point 99 :  0.50000.42860.2143  plane waves:   1220
 k-point ** :  0.50000.50000.2143  plane waves:   1208
 k-point ** :  0.28570.28570.2857  plane waves:   1217
 k-point ** :  0.35710.28570.2857  plane waves:   1218
 k-point ** :  0.42860.28570.2857  plane waves:   1221
 k-point ** :  0.50000.28570.2857  plane waves:   1206
 k-point ** :  0.35710.35710.2857  plane waves:   1220
 k-point ** :  0.42860.35710.2857  plane waves:   1215
 k-point ** :  0.50000.35710.2857  plane waves:   1210
 k-point ** :  0.42860.42860.2857  plane waves:   1222
 k-point ** :  0.50000.42860.2857  plane waves:   1216
 k-point ** :  0.50000.50000.2857  plane waves:   1212
 k-point ** :  0.35710.35710.3571  plane waves:   1223
 k-point ** :  0.42860.35710.3571  plane waves:   1213
 k-point ** :  0.50000.35710.3571  plane waves:   1214
 k-point ** :  0.42860.42860.3571  plane waves:   1227
 k-point ** :  0.50000.42860.3571  plane waves:   1220
 k-point ** :  0.50000.50000.3571  plane waves:   1220
 k-point ** :  0.42860.42860.4286  plane waves:   1217
 k-point ** :  0.50000.42860.4286  plane waves:   1228
 k-point ** :  0.50000.50000.4286  plane waves:   1216
 k-point ** :  0.50000.50000.5000  plane waves:   1208

 maximum and minimum number of plane-waves per node :   1242  1206

 maximum number of plane-waves:   1242
 maximal index in each direction:
   IXMAX=  6   IYMAX=  6   IZMAX=  6
   IXMIN= -7   IYMIN= -7   IZMIN= -7

 NGX is ok and might be reduce to  28
 NGY is ok and might be reduce to  28
 NGZ is ok and might be reduce to  28

 parallel 3dFFT wavefunction:
    minimum data exchange during FFTs selected (reduces bandwidth)
 parallel 3dFFT charge:
    minimum data exchange during FFTs selected (reduces bandwidth)

Broyden mixing: mesh for mixing (old mesh)
   NGX = 13   NGY = 13   NGZ = 13
  (NGX  = 56   NGY  = 56   NGZ  = 56)
 gives a total of   2197 points
 initial charge density was supplied:
 charge density of overlapping atoms calculated
 number of electron   44.0000000 magnetization
 keeping initial charge density in first step

 Maximum index for augmentation-charges        15435 (set IRDMAX)

 First call to EWALD:  gamma=   0.487
 Maximum number of real-space cells 3x 3x 3
 Maximum number of reciprocal cells 3x 3x 3

----------------------------------------- Iteration    1(   1)  ---------------------------------------

 eigenvalue-minimisations  :  7984
 total energy-change (2. order) : 0.2776351E+03  (-0.2013786E+04)
 number of electron   44.0000000 magnetization
 augmentation part    44.0000000 magnetization

 Free energy of the ion-electron system (eV)
  alpha Z        PSCENC =       425.18474111
  Ewald energy   TEWEN  =     -4393.88963807
  -1/2 Hartree   DENC   =     -1318.35125601
  -V(xc)+E(xc)   XCENC  =       175.41389196
  PAW double counting   =      4328.20916945    -4904.30802700
  entropy T*S    EENTRO =        -0.00019648
  eigenvalues    EBANDS =       401.46911703
  atomic energy  EATOM  =      5563.90732063
  free energy    TOTEN  =       277.63512261 eV

  energy without entropy =      277.63531909  energy(sigma->0) =      277.63522085

[...]

 eigenvalue-minimisations  :  7712
 total energy-change (2. order) :-0.2775298E+03  (-0.2631250E+03)
 number of electron   44.0000000 magnetization
 augmentation part    44.0000000 magnetization

[...]

 Broyden mixing:
  rms(total) = 0.13923E+01    rms(broyden)= 0.13923E+01
  rms(prec ) = 0.33326E+01
  weight for this iteration     100.00

[...]

 eigenvalues of (default mixing * dielectric matrix)
  average eigenvalue GAMMA=   0.6888
  0.6888

[...]

 average (electrostatic) potential at core
  the test charge radii are     1.0053
  (the norm of the test charge is              1.0000)
       1 -40.0408       2 -40.0408       3 -40.0408       4 -40.0408

 E-fermi :   3.6405     XC(G=0): -12.6983     alpha+bet : -9.4632
   add alpha+bet to get absolut eigen values

 k-point   1 :       0.0000    0.0000    0.0000
  band No.  band energies     occupation
      1      -5.5733      2.00000
      2      -1.1509      2.00000
      3      -1.1509      2.00000
      4      -1.1509      2.00000
      5      -0.7099      2.00000
      6      -0.7099      2.00000
      7      -0.7099      2.00000
      8       0.6437      2.00000
      9       0.6437      2.00000
     10       0.6437      2.00000
     11       1.4493      2.00000
     12       1.4493      2.00000
     13       1.9844      2.00000
     14       1.9844      2.00000
     15       1.9844      2.00000
     16       2.1345      2.00000
     17       2.1345      2.00000
     18       2.1345      2.00000
     19       2.1345      2.00000
     20       2.1345      2.00000
     21       2.1345      2.00000
     22       5.1665      0.00000
     23       5.1665      0.00000
     24       5.1665      0.00000
     25      10.6388      0.00000
     26      10.6388      0.00000
     27      10.6388      0.00000
     28      16.6739      0.00000
     29      16.6739      0.00000
     30      16.6739      0.00000
     31      16.6739      0.00000
     32      16.6739      0.00000

[...]

 soft charge-density along one line, spin component           1
         0         1         2         3         4         5         6         7         8         9
 total charge-density along one line

------------------------ aborting loop because EDIFF is reached ----------------------------------------

  FREE ENERGIE OF THE ION-ELECTRON SYSTEM (eV)
  free  energy   TOTEN  =       -14.879349 eV

  energy  without entropy=      -14.879219  energy(sigma->0) =      -14.879284

  FORCE on cell =-STRESS in cart. coord.  units (eV/reduce length):
  Direction    X        Y        Z        XY       YZ       ZX
  Alpha Z    425.18    425.18    425.18
  Ewald    -1464.63  -1464.63  -1464.63      0.00      0.00     -0.00
  Hartree    410.17    410.17    410.17     -0.00     -0.00     -0.00
  E(xc)     -250.55   -250.55   -250.55      0.00      0.00     -0.00
  Local      485.90    485.90    485.90      0.00      0.00     -0.00
  n-local   -142.12   -148.03   -149.24      0.36      1.80      0.65
  augment    226.15    226.15    226.15     -0.00     -0.00     -0.00
  Kinetic    321.97    313.29    307.44     -3.03     -0.07     -1.31
  Total        0.01      0.01      0.01      0.00      0.00     -0.00
  in kB        0.23      0.23      0.23      0.00      0.00     -0.00

 VOLUME and BASIS-vectors are now :
  energy-cutoff  :      500.00
  volume of cell :       48.08
      direct lattice vectors                 reciprocal lattice vectors
     3.636206800  0.000000000  0.000000000     0.275011861  0.000000000  0.000000000
     0.000000000  3.636206800  0.000000000     0.000000000  0.275011861  0.000000000
     0.000000000  0.000000000  3.636206800     0.000000000  0.000000000  0.275011861

[...]

 FORCES acting on ions
    electron-ion (+dipol)            ewald-force                    non-local-force                 convergence-correction
   -.508E-13 -.489E-13 -.604E-13   0.181E-13 -.282E-14 -.476E-14   0.000E+00 0.129E-25 0.404E-27   0.372E-13 -.655E-14 0.324E-14
   0.503E-12 0.358E-11 0.223E-11   0.427E-14 -.343E-14 -.493E-14   0.162E-25 -.323E-26 -.646E-26   -.162E-13 0.102E-13 0.679E-14
   0.506E-12 -.484E-13 0.751E-11   0.780E-14 0.330E-14 0.650E-14   -.323E-25 0.129E-25 -.517E-25   -.276E-13 0.615E-14 -.753E-13
   -.501E-13 0.508E-12 0.491E-12   -.283E-13 0.270E-14 0.633E-14   0.485E-26 -.226E-25 -.129E-25   0.414E-13 -.186E-13 -.721E-13
   0.908E-12 0.399E-11 0.102E-10   0.188E-14 -.250E-15 0.313E-14   -.113E-25 0.000E+00 -.707E-25   0.348E-13 -.872E-14 -.137E-12

 POSITION                                       TOTAL-FORCE (eV/Angst)
      0.00000      0.00000      0.00000         0.000000      0.000000      0.000000
      1.81810      1.81810      0.00000        -0.000000      0.000000      0.000000
      1.81810      0.00000      1.81810         0.000000     -0.000000     -0.000000
      0.00000      1.81810      1.81810         0.000000      0.000000      0.000000
    total drift:                                0.000000      0.000000      0.000000

[...]

 d Force = 0.0000000E+00[ 0.000E+00, 0.000E+00]  d Energy =-0.1106293E-05 0.111E-05
 d Force = 0.0000000E+00[ 0.000E+00, 0.000E+00]  d Ewald  =-0.3586795E+00 0.359E+00

[...]

 Steepest descent step on ions:
 trial-energy change:    0.000001  1 .order   -0.000000   -0.000002    0.000001
  (g-gl).g = 0.166E-05      g.g   = 0.166E-05  gl.gl    = 0.000E+00
 g(Force)  = 0.159E-59   g(Stress)= 0.166E-05 ortho     = 0.000E+00
 gamma     =   0.00000
 trial     =   1.00000
 opt step  =   0.70409  (harmonic =   0.70409) maximal distance =0.00000000
 next E    =   -14.879350   (d E  =  -0.00000)

[...]

 eigenvalue-minimisations  :  8384
 total energy-change (2. order) :-0.1487935E+02  (-0.3626414E-05)
 number of electron   44.0000000 magnetization
 augmentation part    28.7681071 magnetization

[...]

 Broyden mixing:
  rms(total) = 0.35745E-05    rms(broyden)= 0.35744E-05
  rms(prec ) = 0.89730E-05
  weight for this iteration     100.00

 eigenvalues of (default mixing * dielectric matrix)
  average eigenvalue GAMMA=   1.5649
  2.6307  2.5022  0.6476  1.0220  1.0220

[...]

----------------------------------------- Iteration    3(   7)  ---------------------------------------

 eigenvalue-minimisations  :  4048
 total energy-change (2. order) : 0.7236849E-08  (-0.3773084E-11)
 number of electron   44.0000000 magnetization
 augmentation part    28.7701217 magnetization

 Free energy of the ion-electron system (eV)
  alpha Z        PSCENC =       425.11142968
  Ewald energy   TEWEN  =     -4393.63708839
  -1/2 Hartree   DENC   =     -1230.66150552
  -V(xc)+E(xc)   XCENC  =       171.09087219
  PAW double counting   =      4382.70641434    -4961.51483866
  entropy T*S    EENTRO =        -0.00013043
  eigenvalues    EBANDS =        28.11817770
  atomic energy  EATOM  =      5563.90732063
  free energy    TOTEN  =       -14.87934845 eV

  energy without entropy =      -14.87921802  energy(sigma->0) =      -14.87928324

 average (electrostatic) potential at core
  the test charge radii are     1.0053
  (the norm of the test charge is              1.0000)
       1 -40.0419       2 -40.0419       3 -40.0419       4 -40.0419

 E-fermi :   3.6390     XC(G=0): -12.6973     alpha+bet : -9.4615
   add alpha+bet to get absolut eigen values

[...]

 k-point 120 :       0.5000    0.5000    0.5000
  band No.  band energies     occupation
      1      -1.3531      2.00000
      2      -1.3531      2.00000
      3      -1.3531      2.00000
      4      -1.3531      2.00000
      5       0.6145      2.00000
      6       0.6145      2.00000
      7       0.6145      2.00000
      8       0.6145      2.00000
      9       0.6145      2.00000
     10       0.6145      2.00000
     11       0.6145      2.00000
     12       0.6145      2.00000
     13       1.9970      2.00000
     14       1.9970      2.00000
     15       1.9970      2.00000
     16       1.9970      2.00000
     17       1.9970      2.00000
     18       1.9970      2.00000
     19       1.9970      2.00000
     20       1.9970      2.00000
     21       2.6960      2.00000
     22       2.6960      2.00000
     23       2.6960      2.00000
     24       2.6960      2.00000
     25       7.3029      0.00000
     26       7.3029      0.00000
     27       7.3029      0.00000
     28       7.3029      0.00000
     29      24.9608      0.00000
     30      24.9608      0.00000
     31      24.9608      0.00000
     32      24.9608      0.00000

 soft charge-density along one line, spin component           1
         0         1         2         3         4         5         6         7         8         9
 total charge-density along one line

------------------------ aborting loop because EDIFF is reached ----------------------------------------

 d Force = 0.0000000E+00[ 0.000E+00, 0.000E+00]  d Energy = 0.5774091E-06-0.577E-06
 d Force = 0.0000000E+00[ 0.000E+00, 0.000E+00]  d Ewald  = 0.1061299E+00-0.106E+00

  FREE ENERGIE OF THE ION-ELECTRON SYSTEM (eV)
  free  energy   TOTEN  =       -14.879348 eV

  energy  without entropy=      -14.879218  energy(sigma->0) =      -14.879283

  FORCE on cell =-STRESS in cart. coord.  units (eV/reduce length):
  Direction    X        Y        Z        XY       YZ       ZX
  Alpha Z    425.11    425.11    425.11
  Ewald    -1464.55  -1464.55  -1464.55     -0.00     -0.00      0.00
  Hartree    410.22    410.22    410.22      0.00     -0.00     -0.00
  E(xc)     -250.55   -250.55   -250.55     -0.00     -0.00      0.00
  Local      485.85    485.85    485.85     -0.00      0.00     -0.00
  n-local   -142.13   -148.04   -149.25      0.36      1.80      0.65
  augment    226.15    226.15    226.15     -0.00     -0.00     -0.00
  Kinetic    321.97    313.29    307.44     -3.03     -0.07     -1.31
  Total        0.00      0.00      0.00      0.00      0.00      0.00
  in kB        0.01      0.01      0.01      0.00      0.00      0.00

 VOLUME and BASIS-vectors are now :
  energy-cutoff  :      500.00
  volume of cell :       48.09
      direct lattice vectors                 reciprocal lattice vectors
     3.636415812  0.000000000 -0.000000000     0.274996054 -0.000000000  0.000000000
     0.000000000  3.636415812  0.000000000    -0.000000000  0.274996054 -0.000000000
    -0.000000000  0.000000000  3.636415812     0.000000000 -0.000000000  0.274996054

  length of vectors
     3.636415812  3.636415812  3.636415812     0.274996054  0.274996054  0.274996054

 FORCES acting on ions
    electron-ion (+dipol)            ewald-force                    non-local-force                 convergence-correction
   -.381E-13 -.469E-13 -.491E-13   -.150E-13 -.774E-14 -.727E-14   0.452E-25 -.107E-25 -.162E-26   0.307E-14 0.176E-13 0.833E-14
   0.503E-12 0.356E-11 0.223E-11   0.329E-13 0.989E-14 -.721E-14   -.646E-25 -.323E-25 -.162E-26   -.213E-13 -.317E-14 0.163E-13
   0.505E-12 -.460E-13 0.749E-11   -.230E-13 -.110E-13 0.832E-14   0.388E-25 0.259E-25 0.258E-25   -.144E-13 0.477E-14 -.696E-13
   -.381E-13 0.491E-12 0.483E-12   0.273E-14 0.666E-14 0.837E-14   -.388E-25 -.129E-25 -.323E-25   -.133E-13 0.493E-14 -.103E-12
   0.932E-12 0.396E-11 0.102E-10   -.233E-14 -.216E-14 0.221E-14   -.194E-25 -.301E-25 -.969E-26   -.459E-13 0.242E-13 -.148E-12

 POSITION                                       TOTAL-FORCE (eV/Angst)
      0.00000      0.00000      0.00000         0.000000     -0.000000      0.000000
      1.81821      1.81821      0.00000        -0.000000     -0.000000      0.000000
      1.81821      0.00000      1.81821        -0.000000     -0.000000     -0.000000
     -0.00000      1.81821      1.81821        -0.000000      0.000000      0.000000
    total drift:                                0.000000      0.000000      0.000000

 reached required accuracy - stopping structural energy minimisation