 vasp.4.6.28 25Jul05 complex
 executed on             LinuxIFC date 2017.01.11  20:00:52

 INCAR:
 POTCAR:   PAW_PBE Cu 05Jan2001
 POTCAR:   PAW_PBE Cu 05Jan2001
   VRHFIN =Cu: d10 p1

   TITEL  = PAW_PBE Cu 05Jan2001
   POMASS =   63.546; ZVAL   =   11.000    mass and valenz
   ENMAX  =  273.214; ENMIN  =  204.910 eV
   QCUT   =   -4.481; QGAM   =    8.962    optimization parameters

   Description
     l     E      TYP  RCUT    TYP  RCUT
     2   .000     23  2.300
     2   .000     23  2.300
     0   .000     23  2.300
     0   .000     23  2.300
     1  -.200     23  2.300
     1   .000     23  2.300
     3   .000      7   .000

 PAW_PBE Cu 05Jan2001                   :

 POSCAR: Cu
  positions in direct lattice
  velocities in cartesian coordinates

 ion  position               nearest neighbor table
   1  0.000  0.000  0.000-   2 2.78   3 2.78   4 2.78   3 2.78   4 2.78   2 2.78   4 2.78   4 2.78
                             2 2.78   3 2.78   3 2.78   2 2.78
   2  0.500  0.500  0.000-   1 2.78   3 2.78   4 2.78   3 2.78   4 2.78   1 2.78   3 2.78   3 2.78
                             1 2.78   4 2.78   4 2.78   1 2.78
   3  0.500  0.000  0.500-   1 2.78   2 2.78   4 2.78   1 2.78   2 2.78   2 2.78   4 2.78   2 2.78
                             1 2.78   4 2.78   1 2.78   4 2.78
   4  0.000  0.500  0.500-   1 2.78   2 2.78   3 2.78   1 2.78   2 2.78   1 2.78   3 2.78   1 2.78
                             2 2.78   3 2.78   2 2.78   3 2.78

  LATTYP: Found a simple cubic cell.
 ALAT       =     3.9277701632

  Lattice vectors:

 A1 = (   3.9277701632,   0.0000000000,   0.0000000000)
 A2 = (   0.0000000000,   3.9277701632,   0.0000000000)
 A3 = (   0.0000000000,   0.0000000000,   3.9277701632)
 Subroutine PRICEL returns following result:

  LATTYP: Found a face centered cubic cell.
 ALAT       =     3.9277701632

  Lattice vectors:

 A1 = (   1.9638850816,   1.9638850816,   0.0000000000)
 A2 = (   1.9638850816,   0.0000000000,  -1.9638850816)
 A3 = (   0.0000000000,   1.9638850816,  -1.9638850816)

   4 primitive cells build up your supercell.

Analysis of symmetry for initial positions (statically):

 Routine SETGRP: Setting up the symmetry group for a
 simple cubic supercell.

 Subroutine GETGRP returns: Found 48 space group operations
 (whereof 48 operations were pure point group operations)
 out of a pool of 48 trial point group operations.

The static configuration has the point symmetry O_h .

Analysis of symmetry for dynamics (positions and initial velocities):

 Subroutine DYNSYM returns: Found 48 space group operations
 (whereof 48 operations were pure point group operations)
 out of a pool of 48 trial space group operations
 (whereof 48 operations were pure point group operations)
 and found also     4 'primitive' translations

The dynamic configuration has the point symmetry O_h .

 KPOINTS: Automatic mesh

Automatic generation of k-mesh.

 Subroutine IBZKPT returns following result:

 Found    455 irreducible k-points:

 Following reciprocal coordinates:
            Coordinates               Weight
  0.000000  0.000000  0.000000      1.000000
  0.041667  0.000000  0.000000      6.000000
  0.083333  0.000000  0.000000      6.000000
  0.125000  0.000000  0.000000      6.000000
  0.166667  0.000000  0.000000      6.000000
  0.208333  0.000000  0.000000      6.000000
  0.250000  0.000000  0.000000      6.000000
  0.291667  0.000000  0.000000      6.000000
  0.333333  0.000000  0.000000      6.000000
  0.375000  0.000000  0.000000      6.000000
  0.416667  0.000000  0.000000      6.000000
  0.458333  0.000000  0.000000      6.000000
  0.500000  0.000000  0.000000      3.000000
  0.041667  0.041667  0.000000     12.000000
  0.083333  0.041667  0.000000     24.000000
  0.125000  0.041667  0.000000     24.000000
  0.166667  0.041667  0.000000     24.000000
  0.208333  0.041667  0.000000     24.000000
  0.250000  0.041667  0.000000     24.000000
  0.291667  0.041667  0.000000     24.000000
  0.333333  0.041667  0.000000     24.000000
  0.375000  0.041667  0.000000     24.000000
  0.416667  0.041667  0.000000     24.000000
  0.458333  0.041667  0.000000     24.000000
  0.500000  0.041667  0.000000     12.000000
  0.083333  0.083333  0.000000     12.000000
  0.125000  0.083333  0.000000     24.000000
  0.166667  0.083333  0.000000     24.000000
  0.208333  0.083333  0.000000     24.000000
  0.250000  0.083333  0.000000     24.000000
  0.291667  0.083333  0.000000     24.000000
  0.333333  0.083333  0.000000     24.000000
  0.375000  0.083333  0.000000     24.000000
  0.416667  0.083333  0.000000     24.000000
  0.458333  0.083333  0.000000     24.000000
  0.500000  0.083333  0.000000     12.000000
  0.125000  0.125000  0.000000     12.000000
  0.166667  0.125000  0.000000     24.000000
  0.208333  0.125000  0.000000     24.000000
  0.250000  0.125000  0.000000     24.000000
  0.291667  0.125000  0.000000     24.000000
  0.333333  0.125000  0.000000     24.000000
  0.375000  0.125000  0.000000     24.000000
  0.416667  0.125000  0.000000     24.000000
  0.458333  0.125000  0.000000     24.000000
  0.500000  0.125000  0.000000     12.000000
  0.166667  0.166667  0.000000     12.000000
  0.208333  0.166667  0.000000     24.000000
  0.250000  0.166667  0.000000     24.000000
  0.291667  0.166667  0.000000     24.000000
  0.333333  0.166667  0.000000     24.000000
  0.375000  0.166667  0.000000     24.000000
  0.416667  0.166667  0.000000     24.000000
  0.458333  0.166667  0.000000     24.000000
  0.500000  0.166667  0.000000     12.000000
  0.208333  0.208333  0.000000     12.000000
  0.250000  0.208333  0.000000     24.000000
  0.291667  0.208333  0.000000     24.000000
  0.333333  0.208333  0.000000     24.000000
  0.375000  0.208333  0.000000     24.000000
[...]
  0.458333  0.416667  0.375000     48.000000
  0.500000  0.416667  0.375000     24.000000
  0.458333  0.458333  0.375000     24.000000
  0.500000  0.458333  0.375000     24.000000
  0.500000  0.500000  0.375000      6.000000
  0.416667  0.416667  0.416667      8.000000
  0.458333  0.416667  0.416667     24.000000
  0.500000  0.416667  0.416667     12.000000
  0.458333  0.458333  0.416667     24.000000
  0.500000  0.458333  0.416667     24.000000
  0.500000  0.500000  0.416667      6.000000
  0.458333  0.458333  0.458333      8.000000
  0.500000  0.458333  0.458333     12.000000
  0.500000  0.500000  0.458333      6.000000
  0.500000  0.500000  0.500000      1.000000

 Following cartesian coordinates:
            Coordinates               Weight
  0.000000  0.000000  0.000000      1.000000
  0.011457  0.000000  0.000000      6.000000
  0.022914  0.000000  0.000000      6.000000
  0.034371  0.000000  0.000000      6.000000
  0.045828  0.000000  0.000000      6.000000
  0.057284  0.000000  0.000000      6.000000
  0.068741  0.000000  0.000000      6.000000
  0.080198  0.000000  0.000000      6.000000
  0.091655  0.000000  0.000000      6.000000
  0.103112  0.000000  0.000000      6.000000
  0.114569  0.000000  0.000000      6.000000
  0.126026  0.000000  0.000000      6.000000
  0.137483  0.000000  0.000000      3.000000
  0.011457  0.011457  0.000000     12.000000
  0.022914  0.011457  0.000000     24.000000
  0.034371  0.011457  0.000000     24.000000
  0.045828  0.011457  0.000000     24.000000
  0.057284  0.011457  0.000000     24.000000
  0.068741  0.011457  0.000000     24.000000
  0.080198  0.011457  0.000000     24.000000
  0.091655  0.011457  0.000000     24.000000
  0.103112  0.011457  0.000000     24.000000
  0.114569  0.011457  0.000000     24.000000
  0.126026  0.011457  0.000000     24.000000
  0.137483  0.011457  0.000000     12.000000
  0.022914  0.022914  0.000000     12.000000
  0.034371  0.022914  0.000000     24.000000
  0.045828  0.022914  0.000000     24.000000
  0.057284  0.022914  0.000000     24.000000
  0.068741  0.022914  0.000000     24.000000
  0.080198  0.022914  0.000000     24.000000
  0.091655  0.022914  0.000000     24.000000
  0.103112  0.022914  0.000000     24.000000
  0.114569  0.022914  0.000000     24.000000
  0.126026  0.022914  0.000000     24.000000
  0.137483  0.022914  0.000000     12.000000
  0.034371  0.034371  0.000000     12.000000
  0.045828  0.034371  0.000000     24.000000
  0.057284  0.034371  0.000000     24.000000
  0.068741  0.034371  0.000000     24.000000
  0.080198  0.034371  0.000000     24.000000
  0.091655  0.034371  0.000000     24.000000
  0.103112  0.034371  0.000000     24.000000
  0.114569  0.034371  0.000000     24.000000
  0.126026  0.034371  0.000000     24.000000
  0.137483  0.034371  0.000000     12.000000
  0.045828  0.045828  0.000000     12.000000
  0.057284  0.045828  0.000000     24.000000
  0.068741  0.045828  0.000000     24.000000
  0.080198  0.045828  0.000000     24.000000
  0.091655  0.045828  0.000000     24.000000
  0.103112  0.045828  0.000000     24.000000
  0.114569  0.045828  0.000000     24.000000
  0.126026  0.045828  0.000000     24.000000
  0.137483  0.045828  0.000000     12.000000
  0.057284  0.057284  0.000000     12.000000
  0.068741  0.057284  0.000000     24.000000
  0.080198  0.057284  0.000000     24.000000
  0.091655  0.057284  0.000000     24.000000
  0.103112  0.057284  0.000000     24.000000
[...]
  0.126026  0.114569  0.103112     48.000000
  0.137483  0.114569  0.103112     24.000000
  0.126026  0.126026  0.103112     24.000000
  0.137483  0.126026  0.103112     24.000000
  0.137483  0.137483  0.103112      6.000000
  0.114569  0.114569  0.114569      8.000000
  0.126026  0.114569  0.114569     24.000000
  0.137483  0.114569  0.114569     12.000000
  0.126026  0.126026  0.114569     24.000000
  0.137483  0.126026  0.114569     24.000000
  0.137483  0.137483  0.114569      6.000000
  0.126026  0.126026  0.126026      8.000000
  0.137483  0.126026  0.126026     12.000000
  0.137483  0.137483  0.126026      6.000000
  0.137483  0.137483  0.137483      1.000000

 I would recommend the setting:
   dimension x,y,z NGX =    36 NGY =   36 NGZ =   36
 SYSTEM =  unknown system
 POSCAR =  Cu

 Startparameter for this run:
   NWRITE =      2    write-flag & timer
   PREC   = accura    medium, high low
   ISTART =      0    job   : 0-new  1-cont  2-samecut
   ICHARG =      2    charge: 1-file 2-atom 10-const
   ISPIN  =      1    spin polarized calculation?
   LNONCOLLINEAR =      F non collinear calculations
   LSORBIT =      F    spin-orbit coupling
   INIWAV =      1    electr: 0-lowe 1-rand  2-diag
   LASPH  =      F    aspherical Exc in radial PAW
   METAGGA=      F    non-selfconsistent MetaGGA calc.

 Electronic Relaxation 1
   ENCUT  =  800.0 eV  58.80 Ry    7.67 a.u.   9.06  9.06  9.06*2*pi/ulx,y,z
   ENINI  =  800.0     initial cutoff
   ENAUG  =  516.5 eV  augmentation charge cutoff
   NELM   =     60;   NELMIN=  2; NELMDL= -5     # of ELM steps
   EDIFF  = 0.1E-07   stopping-criterion for ELM
   LREAL  =      F    real-space projection
   LCOMPAT=      F    compatible to vasp.4.4
   LREAL_COMPAT= F    compatible to vasp.4.5.1-3
   GGA_COMPAT  = T    GGA compatible to vasp.4.4-vasp.4.6
   LMAXPAW     = -100 max onsite density
   LMAXMIX     =    2 max onsite mixed and CHGCAR
[...]
 k-point 23 :  0.41670.04170.0000  plane waves:   3109
 k-point 24 :  0.45830.04170.0000  plane waves:   3112
 k-point 25 :  0.50000.04170.0000  plane waves:   3114
 k-point 26 :  0.08330.08330.0000  plane waves:   3095
 k-point 27 :  0.12500.08330.0000  plane waves:   3089
 k-point 28 :  0.16670.08330.0000  plane waves:   3100
 k-point 29 :  0.20830.08330.0000  plane waves:   3100
 k-point 30 :  0.25000.08330.0000  plane waves:   3106
 k-point 31 :  0.29170.08330.0000  plane waves:   3101
 k-point 32 :  0.33330.08330.0000  plane waves:   3107
 k-point 33 :  0.37500.08330.0000  plane waves:   3104
 k-point 34 :  0.41670.08330.0000  plane waves:   3113
 k-point 35 :  0.45830.08330.0000  plane waves:   3124
 k-point 36 :  0.50000.08330.0000  plane waves:   3108
 k-point 37 :  0.12500.12500.0000  plane waves:   3099
 k-point 38 :  0.16670.12500.0000  plane waves:   3092
 k-point 39 :  0.20830.12500.0000  plane waves:   3099
 k-point 40 :  0.25000.12500.0000  plane waves:   3099
 k-point 41 :  0.29170.12500.0000  plane waves:   3109
 k-point 42 :  0.33330.12500.0000  plane waves:   3108
 k-point 43 :  0.37500.12500.0000  plane waves:   3099
 k-point 44 :  0.41670.12500.0000  plane waves:   3107
 k-point 45 :  0.45830.12500.0000  plane waves:   3111
 k-point 46 :  0.50000.12500.0000  plane waves:   3120
 k-point 47 :  0.16670.16670.0000  plane waves:   3077
 k-point 48 :  0.20830.16670.0000  plane waves:   3105
 k-point 49 :  0.25000.16670.0000  plane waves:   3105
 k-point 50 :  0.29170.16670.0000  plane waves:   3107
 k-point 51 :  0.33330.16670.0000  plane waves:   3101
 k-point 52 :  0.37500.16670.0000  plane waves:   3105
 k-point 53 :  0.41670.16670.0000  plane waves:   3108
 k-point 54 :  0.45830.16670.0000  plane waves:   3106
 k-point 55 :  0.50000.16670.0000  plane waves:   3112
 k-point 56 :  0.20830.20830.0000  plane waves:   3103
 k-point 57 :  0.25000.20830.0000  plane waves:   3107
 k-point 58 :  0.29170.20830.0000  plane waves:   3103
 k-point 59 :  0.33330.20830.0000  plane waves:   3102
 k-point 60 :  0.37500.20830.0000  plane waves:   3108
[...]
 k-point 85 :  0.50000.37500.0000  plane waves:   3124
 k-point 86 :  0.41670.41670.0000  plane waves:   3120
 k-point 87 :  0.45830.41670.0000  plane waves:   3116
 k-point 88 :  0.50000.41670.0000  plane waves:   3116
 k-point 89 :  0.45830.45830.0000  plane waves:   3120
 k-point 90 :  0.50000.45830.0000  plane waves:   3132
 k-point 91 :  0.50000.50000.0000  plane waves:   3136
 k-point 92 :  0.04170.04170.0417  plane waves:   3089
 k-point 93 :  0.08330.04170.0417  plane waves:   3090
 k-point 94 :  0.12500.04170.0417  plane waves:   3087
 k-point 95 :  0.16670.04170.0417  plane waves:   3095
 k-point 96 :  0.20830.04170.0417  plane waves:   3103
 k-point 97 :  0.25000.04170.0417  plane waves:   3105
 k-point 98 :  0.29170.04170.0417  plane waves:   3110
 k-point 99 :  0.33330.04170.0417  plane waves:   3107
 k-point ** :  0.37500.04170.0417  plane waves:   3105
 k-point ** :  0.41670.04170.0417  plane waves:   3112
 k-point ** :  0.45830.04170.0417  plane waves:   3122
 k-point ** :  0.50000.04170.0417  plane waves:   3118
 k-point ** :  0.08330.08330.0417  plane waves:   3095
 k-point ** :  0.12500.08330.0417  plane waves:   3092
 k-point ** :  0.16670.08330.0417  plane waves:   3098
 k-point ** :  0.20830.08330.0417  plane waves:   3107
 k-point ** :  0.25000.08330.0417  plane waves:   3111
 k-point ** :  0.29170.08330.0417  plane waves:   3109
 k-point ** :  0.33330.08330.0417  plane waves:   3104
 k-point ** :  0.37500.08330.0417  plane waves:   3101
 k-point ** :  0.41670.08330.0417  plane waves:   3111
 k-point ** :  0.45830.08330.0417  plane waves:   3118
 k-point ** :  0.50000.08330.0417  plane waves:   3114
 k-point ** :  0.12500.12500.0417  plane waves:   3092
 k-point ** :  0.16670.12500.0417  plane waves:   3097
 k-point ** :  0.20830.12500.0417  plane waves:   3103
 k-point ** :  0.25000.12500.0417  plane waves:   3108
 k-point ** :  0.29170.12500.0417  plane waves:   3109
 k-point ** :  0.33330.12500.0417  plane waves:   3108
 k-point ** :  0.37500.12500.0417  plane waves:   3098
 k-point ** :  0.41670.12500.0417  plane waves:   3109
 k-point ** :  0.45830.12500.0417  plane waves:   3109
 k-point ** :  0.50000.12500.0417  plane waves:   3110
 k-point ** :  0.16670.16670.0417  plane waves:   3094
 k-point ** :  0.20830.16670.0417  plane waves:   3100
 k-point ** :  0.25000.16670.0417  plane waves:   3104
 k-point ** :  0.29170.16670.0417  plane waves:   3107
 k-point ** :  0.33330.16670.0417  plane waves:   3101
 k-point ** :  0.37500.16670.0417  plane waves:   3107
 k-point ** :  0.41670.16670.0417  plane waves:   3102
 k-point ** :  0.45830.16670.0417  plane waves:   3103
 k-point ** :  0.50000.16670.0417  plane waves:   3102
 k-point ** :  0.20830.20830.0417  plane waves:   3111
 k-point ** :  0.25000.20830.0417  plane waves:   3108
 k-point ** :  0.29170.20830.0417  plane waves:   3108
 k-point ** :  0.33330.20830.0417  plane waves:   3105
 k-point ** :  0.37500.20830.0417  plane waves:   3107
 k-point ** :  0.41670.20830.0417  plane waves:   3107
 k-point ** :  0.45830.20830.0417  plane waves:   3107
 k-point ** :  0.50000.20830.0417  plane waves:   3114
 k-point ** :  0.25000.25000.0417  plane waves:   3102
 k-point ** :  0.29170.25000.0417  plane waves:   3105
 k-point ** :  0.33330.25000.0417  plane waves:   3109
 k-point ** :  0.37500.25000.0417  plane waves:   3111
 k-point ** :  0.41670.25000.0417  plane waves:   3109
 k-point ** :  0.45830.25000.0417  plane waves:   3112
 k-point ** :  0.50000.25000.0417  plane waves:   3108
 k-point ** :  0.29170.29170.0417  plane waves:   3112
 k-point ** :  0.33330.29170.0417  plane waves:   3112
 k-point ** :  0.37500.29170.0417  plane waves:   3115
 k-point ** :  0.41670.29170.0417  plane waves:   3112
 k-point ** :  0.45830.29170.0417  plane waves:   3113
 k-point ** :  0.50000.29170.0417  plane waves:   3112
 k-point ** :  0.33330.33330.0417  plane waves:   3117
 k-point ** :  0.37500.33330.0417  plane waves:   3122
 k-point ** :  0.41670.33330.0417  plane waves:   3116
 k-point ** :  0.45830.33330.0417  plane waves:   3107
 k-point ** :  0.50000.33330.0417  plane waves:   3112
[...]
 k-point ** :  0.45830.41670.3750  plane waves:   3118
 k-point ** :  0.50000.41670.3750  plane waves:   3110
 k-point ** :  0.45830.45830.3750  plane waves:   3113
 k-point ** :  0.50000.45830.3750  plane waves:   3118
 k-point ** :  0.50000.50000.3750  plane waves:   3120
 k-point ** :  0.41670.41670.4167  plane waves:   3121
 k-point ** :  0.45830.41670.4167  plane waves:   3111
 k-point ** :  0.50000.41670.4167  plane waves:   3116
 k-point ** :  0.45830.45830.4167  plane waves:   3119
 k-point ** :  0.50000.45830.4167  plane waves:   3128
 k-point ** :  0.50000.50000.4167  plane waves:   3132
 k-point ** :  0.45830.45830.4583  plane waves:   3127
 k-point ** :  0.50000.45830.4583  plane waves:   3126
 k-point ** :  0.50000.50000.4583  plane waves:   3112
 k-point ** :  0.50000.50000.5000  plane waves:   3112

 maximum and minimum number of plane-waves per node :   3136  3077

 maximum number of plane-waves:   3136
 maximal index in each direction:
   IXMAX=  9   IYMAX=  9   IZMAX=  9
   IXMIN= -9   IYMIN= -9   IZMIN= -9

 WARNING: wrap around error must be expected set NGX to  38
 WARNING: wrap around error must be expected set NGY to  38
 WARNING: wrap around error must be expected set NGZ to  38

 parallel 3dFFT wavefunction:
    minimum data exchange during FFTs selected (reduces bandwidth)
 parallel 3dFFT charge:
    minimum data exchange during FFTs selected (reduces bandwidth)

Broyden mixing: mesh for mixing (old mesh)
   NGX = 19   NGY = 19   NGZ = 19
  (NGX  = 72   NGY  = 72   NGZ  = 72)
 gives a total of   6859 points
 initial charge density was supplied:
 charge density of overlapping atoms calculated
 number of electron   44.0000000 magnetization
 keeping initial charge density in first step

 Maximum index for augmentation-charges        26265 (set IRDMAX)

 First call to EWALD:  gamma=   0.451
 Maximum number of real-space cells 3x 3x 3
 Maximum number of reciprocal cells 3x 3x 3

----------------------------------------- Iteration    1(   1)  ---------------------------------------

 eigenvalue-minimisations  : 29496
 total energy-change (2. order) : 0.3254313E+03  (-0.2697289E+04)
 number of electron   44.0000000 magnetization
 augmentation part    44.0000000 magnetization

 Free energy of the ion-electron system (eV)
  alpha Z        PSCENC =       337.35347953
  Ewald energy   TEWEN  =     -4067.72563450
  -1/2 Hartree   DENC   =     -1498.55456101
  -V(xc)+E(xc)   XCENC  =       173.16071465
  PAW double counting   =      4328.20916945    -4904.30802700
  entropy T*S    EENTRO =        -0.00008284
  eigenvalues    EBANDS =       393.37868551
  atomic energy  EATOM  =      5563.91759264
  free energy    TOTEN  =       325.43133642 eV

  energy without entropy =      325.43141926  energy(sigma->0) =      325.43137784

[...]

 eigenvalue-minimisations  : 29160
 total energy-change (2. order) :-0.3195086E+03  (-0.3048890E+03)
 number of electron   44.0000000 magnetization
 augmentation part    44.0000000 magnetization

[...]

 Broyden mixing:
  rms(total) = 0.12957E+01    rms(broyden)= 0.12957E+01
  rms(prec ) = 0.30227E+01
  weight for this iteration     100.00

[...]

 eigenvalues of (default mixing * dielectric matrix)
  average eigenvalue GAMMA=   0.6138
  0.6138

[...]

 eigenvalue-minimisations  : 17544
 total energy-change (2. order) : 0.1031094E-07  (-0.1630074E-11)
 number of electron   44.0000001 magnetization
 augmentation part    28.9833703 magnetization

 Broyden mixing:
  rms(total) = 0.80847E-06    rms(broyden)= 0.80846E-06
  rms(prec ) = 0.17542E-05
  weight for this iteration     100.00

 eigenvalues of (default mixing * dielectric matrix)
  average eigenvalue GAMMA=   1.6204
  2.7975  2.6440  2.4152  2.4152  1.9237  0.6520  0.9163  0.9720  0.9720  1.0773
  1.0391

[...]

----------------------------------------- Iteration    1(  17)  ---------------------------------------

 eigenvalue-minimisations  : 17168
 total energy-change (2. order) :-0.3665264E-09  (-0.1002077E-12)
 number of electron   44.0000001 magnetization
 augmentation part    28.9833703 magnetization

 Free energy of the ion-electron system (eV)
  alpha Z        PSCENC =       337.35347953
  Ewald energy   TEWEN  =     -4067.72563450
  -1/2 Hartree   DENC   =     -1419.84254430
  -V(xc)+E(xc)   XCENC  =       169.46713563
  PAW double counting   =      4286.10668697    -4862.05057554
  entropy T*S    EENTRO =        -0.00009314
  eigenvalues    EBANDS =       -21.22951230
  atomic energy  EATOM  =      5563.91759264
  free energy    TOTEN  =       -14.00346500 eV

  energy without entropy =      -14.00337187  energy(sigma->0) =      -14.00341844

 average (electrostatic) potential at core
  the test charge radii are     1.0053
  (the norm of the test charge is              1.0000)
       1 -41.3040       2 -41.3040       3 -41.3040       4 -41.3040

 E-fermi :   1.9048     XC(G=0): -11.4075     alpha+bet : -7.5084
   add alpha+bet to get absolut eigen values

 k-point   1 :       0.0000    0.0000    0.0000
  band No.  band energies     occupation
      1      -5.6972      2.00000
      2      -1.7231      2.00000
      3      -1.7231      2.00000
      4      -1.7231      2.00000
      5      -1.4101      2.00000
      6      -1.4101      2.00000
      7      -1.4101      2.00000
      8      -0.4710      2.00000
      9      -0.4710      2.00000
     10      -0.4710      2.00000
     11       0.0904      2.00000
     12       0.0904      2.00000
     13       0.4653      2.00000
     14       0.4653      2.00000
     15       0.4653      2.00000
     16       0.5700      2.00000
     17       0.5700      2.00000
     18       0.5700      2.00000
     19       0.5700      2.00000
     20       0.5700      2.00000
     21       0.5700      2.00000
     22       3.6072      0.00000
     23       3.6072      0.00000
     24       3.6072      0.00000
     25       7.4474      0.00000
     26       7.4474      0.00000
     27       7.4474      0.00000
     28      13.2512      0.00000
     29      13.2512      0.00000
     30      13.2512      0.00000
     31      13.2512      0.00000
     32      13.2512      0.00000

[...]

 k-point 455 :       0.5000    0.5000    0.5000
  band No.  band energies     occupation
      1      -1.9563      2.00000
      2      -1.9563      2.00000
      3      -1.9563      2.00000
      4      -1.9563      2.00000
      5      -0.4858      2.00000
      6      -0.4858      2.00000
      7      -0.4858      2.00000
      8      -0.4858      2.00000
      9      -0.4858      2.00000
     10      -0.4858      2.00000
     11      -0.4858      2.00000
     12      -0.4858      2.00000
     13       0.4753      2.00000
     14       0.4753      2.00000
     15       0.4753      2.00000
     16       0.4753      2.00000
     17       0.4753      2.00000
     18       0.4753      2.00000
     19       0.4753      2.00000
     20       0.4753      2.00000
     21       1.5897      2.00000
     22       1.5897      2.00000
     23       1.5897      2.00000
     24       1.5897      2.00000
     25       4.5790      0.00000
     26       4.5790      0.00000
     27       4.5790      0.00000
     28       4.5790      0.00000
     29      20.4672      0.00000
     30      20.4672      0.00000
     31      20.4672      0.00000
     32      20.4672      0.00000

 soft charge-density along one line, spin component           1
         0         1         2         3         4         5         6         7         8         9
 total charge-density along one line

------------------------ aborting loop because EDIFF is reached ----------------------------------------

  FREE ENERGIE OF THE ION-ELECTRON SYSTEM (eV)
  free  energy   TOTEN  =       -14.003465 eV

  energy  without entropy=      -14.003372  energy(sigma->0) =      -14.003418

  FORCE on cell =-STRESS in cart. coord.  units (eV/reduce length):
  Direction    X        Y        Z        XY       YZ       ZX
  Alpha Z    337.35    337.35    337.35
  Ewald    -1355.91  -1355.91  -1355.91     -0.00     -0.00      0.00
  Hartree    473.28    473.28    473.28     -0.00     -0.00     -0.00
  E(xc)     -249.15   -249.15   -249.15     -0.00      0.00     -0.00
  Local      408.45    408.45    408.45     -0.00      0.00      0.00
  n-local   -150.64   -156.09   -157.03      0.31      1.85      0.66
  augment    224.39    224.39    224.39     -0.00     -0.00     -0.00
  Kinetic    316.67    308.53    303.35     -2.69      0.44     -1.09
  Total       -6.65     -6.65     -6.65     -0.00     -0.00      0.00
  in kB     -175.81   -175.81   -175.81     -0.00     -0.00      0.00

 VOLUME and BASIS-vectors are now :
  energy-cutoff  :      800.00
  volume of cell :       60.60
      direct lattice vectors                 reciprocal lattice vectors
     3.927770163  0.000000000  0.000000000     0.254597382  0.000000000  0.000000000
     0.000000000  3.927770163  0.000000000     0.000000000  0.254597382  0.000000000
     0.000000000  0.000000000  3.927770163     0.000000000  0.000000000  0.254597382

  length of vectors
     3.927770163  3.927770163  3.927770163     0.254597382  0.254597382  0.254597382

 FORCES acting on ions
    electron-ion (+dipol)            ewald-force                    non-local-force                 convergence-correction
   -.329E-13 -.438E-13 -.101E-12   -.906E-14 -.240E-14 -.876E-14   -.275E-25 -.291E-25 -.485E-25   0.381E-14 -.687E-13 0.896E-14
   0.566E-12 0.378E-11 0.226E-11   0.174E-13 0.485E-14 -.864E-14   -.323E-26 -.646E-25 -.452E-25   -.198E-14 -.280E-14 -.201E-13
   0.568E-12 -.469E-13 0.785E-11   -.792E-14 -.383E-14 0.972E-14   -.452E-25 0.323E-26 0.103E-24   -.981E-14 -.703E-13 0.241E-13
   -.330E-13 0.562E-12 0.493E-12   -.541E-15 0.343E-14 0.984E-14   -.129E-25 0.646E-26 0.000E+00   -.114E-13 -.874E-14 0.360E-13
   0.107E-11 0.426E-11 0.105E-10   -.119E-15 0.205E-14 0.216E-14   -.889E-25 -.840E-25 0.969E-26   -.194E-13 -.151E-12 0.489E-13

 POSITION                                       TOTAL-FORCE (eV/Angst)
      0.00000      0.00000      0.00000         0.000000      0.000000      0.000000
      1.96389      1.96389      0.00000         0.000000      0.000000      0.000000
      1.96389      0.00000      1.96389         0.000000     -0.000000      0.000000
      0.00000      1.96389      1.96389         0.000000      0.000000      0.000000
    total drift:                                0.000000      0.000000      0.000000

 mean value of Nose-termostat <S>:     1.000 mean value of <T> :     0.000
 mean temperature <T/S>/<1/S>  :     0.000