 vasp.4.6.28 25Jul05 complex
 executed on             LinuxIFC date 2017.01.06  18:42:21

 INCAR:
 POTCAR:   PAW_PBE Au 06Sep2000
 POTCAR:   PAW_PBE Au 06Sep2000
   VRHFIN =Au: s1d10

   TITEL  = PAW_PBE Au 06Sep2000
   POMASS =  196.966; ZVAL   =   11.000    mass and valenz
   ENMAX  =  229.948; ENMIN  =  172.461 eV
   QCUT   =   -4.111; QGAM   =    8.222    optimization parameters

   Description
     l     E      TYP  RCUT    TYP  RCUT
     2   .000     23  2.500
     2   .000     23  2.500
     0   .000     23  2.500
     0   .000     23  2.500
     1  -.200     23  2.500
     1   .000     23  2.500
     3   .000      7   .000

 PAW_PBE Au 06Sep2000                   :

 POSCAR: No title
  positions in direct lattice

 ion  position               nearest neighbor table
   1  0.750  0.750  0.500-   3 3.06   5 3.06  14 3.06  19 3.06  20 3.06  26 3.06  11 3.06   6 3.06
                            18 3.06  29 3.06  10 3.06   8 3.06
   2  0.750  0.750  0.000-  12 3.05  10 3.06  11 3.06   8 3.06  18 3.06  22 3.06  27 3.06  26 3.06
                             5 3.06  32 3.06   3 3.06  20 3.06
   3  0.750  0.000  0.250-  12 3.05   5 3.06   9 3.06   1 3.06  19 3.06  28 3.06  18 3.06   6 3.06
                            27 3.06  13 3.06   4 3.06   2 3.06
   4  0.750  0.250  0.500-   6 3.06   8 3.06  10 3.06  13 3.06  29 3.06  31 3.06  21 3.06  28 3.06
                            14 3.06  19 3.06   3 3.06  20 3.06
   5  0.000  0.750  0.250-   1 3.06   3 3.06  14 3.06  15 3.06  25 3.06   2 3.06   7 3.06  16 3.06
                            10 3.06  22 3.06   6 3.06  12 3.06
   6  0.000  0.000  0.500-   4 3.06   7 3.06   8 3.06  11 3.06  13 3.06  16 3.06   1 3.06   3 3.06
                            17 3.06  23 3.06  21 3.06   5 3.06
   7  0.250  0.750  0.500-   6 3.06  11 3.06  16 3.06  18 3.06  29 3.06  30 3.06  19 3.06  26 3.06
                             5 3.06  14 3.06  25 3.06  23 3.06
   8  0.750  0.000  0.750-  12 3.05   4 3.06   6 3.06  11 3.06   2 3.06  27 3.06  31 3.06  26 3.06
                            19 3.06  21 3.06   9 3.06   1 3.06
   9  0.750  0.250  0.000-  12 3.05   3 3.06  20 3.06  21 3.06  28 3.06  32 3.06  27 3.06  13 3.06
                            31 3.06  22 3.06  10 3.06   8 3.06
  10  0.750  0.500  0.250-   2 3.06   4 3.06  13 3.06  18 3.06  22 3.06  29 3.06  14 3.06  28 3.06
                             5 3.06  32 3.06   9 3.06   1 3.06
  11  0.000  0.750  0.750-   2 3.06   6 3.06   7 3.06   8 3.06  22 3.06  30 3.06  20 3.06   1 3.06
                            23 3.06  15 3.06  14 3.06  12 3.06
  12  0.998  0.000  0.000-   9 3.05   3 3.05   2 3.05   8 3.05   5 3.06  21 3.06  11 3.06  13 3.06
                            15 3.08  23 3.08  24 3.08  16 3.08
  13  0.000  0.250  0.250-   4 3.06   6 3.06  10 3.06  16 3.06  22 3.06  24 3.06  17 3.06   3 3.06
                             9 3.06  25 3.06  14 3.06  12 3.06
  14  0.000  0.500  0.500-   1 3.06   5 3.06  17 3.06  20 3.06  21 3.06  25 3.06   7 3.06  10 3.06
                             4 3.06  30 3.06  13 3.06  11 3.06
  15  0.250  0.750  0.000-   5 3.06  23 3.06  25 3.06  26 3.06  32 3.06  18 3.06  22 3.06  27 3.06
                            11 3.06  30 3.06  16 3.06  12 3.08
  16  0.250  0.000  0.250-   6 3.06   7 3.06  13 3.06  18 3.06  24 3.06  27 3.06   5 3.06  19 3.06
                            28 3.06  17 3.06  15 3.06  12 3.08
  17  0.250  0.250  0.500-  14 3.06  19 3.06  21 3.06  23 3.06  25 3.06  28 3.06   6 3.06  13 3.06
                            29 3.06  31 3.06  30 3.06  16 3.06
  18  0.500  0.750  0.250-   2 3.06   7 3.06  10 3.06  16 3.06  27 3.06  29 3.06   1 3.06  25 3.06
                             3 3.06  15 3.06  19 3.06  32 3.06
  19  0.500  0.000  0.500-   1 3.06   3 3.06  17 3.06  23 3.06  26 3.06  28 3.06   4 3.06   7 3.06
                             8 3.06  16 3.06  18 3.06  31 3.06
  20  0.750  0.500  0.750-   1 3.06   9 3.06  14 3.06  21 3.06  26 3.06  32 3.06  11 3.06  29 3.06
                            31 3.06  22 3.06   4 3.06   2 3.06
  21  0.000  0.250  0.750-   9 3.06  14 3.06  17 3.06  20 3.06  23 3.06   8 3.06   4 3.06  24 3.06
                            30 3.06  22 3.06   6 3.06  12 3.06
  22  0.000  0.500  0.000-   2 3.06  10 3.06  11 3.06  13 3.06  24 3.06  30 3.06  20 3.06   9 3.06
                            25 3.06  15 3.06  21 3.06   5 3.06
  23  0.250  0.000  0.750-  15 3.06  17 3.06  19 3.06  21 3.06  26 3.06  11 3.06   6 3.06  27 3.06
                            31 3.06  24 3.06   7 3.06  12 3.08
  24  0.250  0.250  0.000-  13 3.06  16 3.06  22 3.06  27 3.06  30 3.06  31 3.06  21 3.06  28 3.06
                            32 3.06  25 3.06  23 3.06  12 3.08
  25  0.250  0.500  0.250-   5 3.06  14 3.06  15 3.06  17 3.06  28 3.06  32 3.06  22 3.06  13 3.06
                            29 3.06  18 3.06  24 3.06   7 3.06
  26  0.500  0.750  0.750-   1 3.06  15 3.06  19 3.06  20 3.06  23 3.06  32 3.06   8 3.06   2 3.06
                            30 3.06   7 3.06  27 3.06  29 3.06
  27  0.500  0.000  0.000-   2 3.06   8 3.06  16 3.06  18 3.06  24 3.06  31 3.06   9 3.06  23 3.06
                            15 3.06   3 3.06  28 3.06  26 3.06
  28  0.500  0.250  0.250-   3 3.06   9 3.06  17 3.06  19 3.06  25 3.06  32 3.06  10 3.06  24 3.06
                            16 3.06   4 3.06  29 3.06  27 3.06
  29  0.500  0.500  0.500-   4 3.06   7 3.06  10 3.06  18 3.06  30 3.06  31 3.06  20 3.06  25 3.06
                            17 3.06   1 3.06  26 3.06  28 3.06
  30  0.250  0.500  0.750-   7 3.06  11 3.06  22 3.06  24 3.06  29 3.06  31 3.06  26 3.06  14 3.06
                            21 3.06  32 3.06  17 3.06  15 3.06
  31  0.500  0.250  0.750-   4 3.06   8 3.06  24 3.06  27 3.06  29 3.06  30 3.06   9 3.06  17 3.06
                            20 3.06  23 3.06  19 3.06  32 3.06
  32  0.500  0.500  0.000-   9 3.06  15 3.06  20 3.06  25 3.06  26 3.06  28 3.06   2 3.06  10 3.06
                            24 3.06  30 3.06  18 3.06  31 3.06

  LATTYP: Found a simple cubic cell.
 ALAT       =     8.6679608100

  Lattice vectors:

 A1 = (   8.6679608100,   0.0000000000,   0.0000000000)
 A2 = (   0.0000001600,   8.6679608100,   0.0000000000)
 A3 = (   0.0000001600,   0.0000001600,   8.6679608100)
 Subroutine PRICEL returns:
 Original cell was already a primitive cell.

Analysis of symmetry for initial positions (statically):

 Routine SETGRP: Setting up the symmetry group for a
 simple cubic supercell.

 Subroutine GETGRP returns: Found  8 space group operations
 (whereof  8 operations were pure point group operations)
 out of a pool of 48 trial point group operations.

The static configuration has the point symmetry C_4v.

Analysis of symmetry for dynamics (positions and initial velocities):

 Subroutine DYNSYM returns: Found  8 space group operations
 (whereof  8 operations were pure point group operations)
 out of a pool of  8 trial space group operations
 (whereof  8 operations were pure point group operations)
 and found also     1 'primitive' translations

The dynamic configuration has the point symmetry C_4v.

 KPOINTS: Automatic mesh

Automatic generation of k-mesh.

 Subroutine IBZKPT returns following result:

 Found      6 irreducible k-points:

 Following reciprocal coordinates:
            Coordinates               Weight
  0.000000  0.000000  0.000000      1.000000
  0.333333  0.000000  0.000000      2.000000
  0.000000  0.333333  0.000000      4.000000
  0.333333  0.333333  0.000000      8.000000
  0.000000  0.333333  0.333333      4.000000
  0.333333  0.333333  0.333333      8.000000

 Following cartesian coordinates:
            Coordinates               Weight
  0.000000  0.000000  0.000000      1.000000
  0.038456 -0.000000 -0.000000      2.000000
  0.000000  0.038456 -0.000000      4.000000
  0.038456  0.038456 -0.000000      8.000000
  0.000000  0.038456  0.038456      4.000000
  0.038456  0.038456  0.038456      8.000000

 I would recommend the setting:
   dimension x,y,z NGX =    69 NGY =   69 NGZ =   69
 SYSTEM =  No title
 POSCAR =  No title

 Startparameter for this run:
   NWRITE =      2    write-flag & timer
   PREC   = accura    medium, high low
   ISTART =      1    job   : 0-new  1-cont  2-samecut
   ICHARG =      0    charge: 1-file 2-atom 10-const
   ISPIN  =      1    spin polarized calculation?
   LNONCOLLINEAR =      F non collinear calculations
   LSORBIT =      F    spin-orbit coupling
   INIWAV =      1    electr: 0-lowe 1-rand  2-diag
   LASPH  =      F    aspherical Exc in radial PAW
   METAGGA=      F    non-selfconsistent MetaGGA calc.

 Electronic Relaxation 1
   ENCUT  =  600.0 eV  44.10 Ry    6.64 a.u.  17.31 17.31 17.31*2*pi/ulx,y,z
   ENINI  =  600.0     initial cutoff
   ENAUG  =  356.7 eV  augmentation charge cutoff
   NELM   =     60;   NELMIN=  2; NELMDL=  0     # of ELM steps
   EDIFF  = 0.1E-04   stopping-criterion for ELM
   LREAL  =      F    real-space projection
   LCOMPAT=      F    compatible to vasp.4.4
   LREAL_COMPAT= F    compatible to vasp.4.5.1-3
   GGA_COMPAT  = T    GGA compatible to vasp.4.4-vasp.4.6
   LMAXPAW     = -100 max onsite density
   LMAXMIX     =    2 max onsite mixed and CHGCAR
   VOSKOWN=      1    Vosko Wilk Nusair interpolation
   ROPT   =    0.00000
 Ionic relaxation
   EDIFFG = -.2E-01   stopping-criterion for IOM
   NSW    =      0    number of steps for IOM
   NBLOCK =      1;   KBLOCK =      1    inner block; outer block
   IBRION =     -1    ionic relax: 0-MD 1-quasi-New 2-CG
   NFREE  =      0    steps in history (QN), initial steepest desc. (CG)
   ISIF   =      2    stress and relaxation
   IWAVPR =     10    prediction:  0-non 1-charg 2-wave 3-comb
   ISYM   =      2    0-nonsym 1-usesym 2-fastsym
   LCORR  =      T    Harris-Foulkes like correction to forces

   POTIM  =   0.50    time-step for ionic-motion
   TEIN   =    0.0    initial temperature
   TEBEG  =    0.0;   TEEND  =   0.0 temperature during run
   SMASS  =  -3.00    Nose mass-parameter (am)
   estimated Nose-frequenzy (Omega)   =  0.10E-29 period in steps =****** mass=  -0.172E-26a.u.
   NPACO  =    256;   APACO  = 16.0  distance and # of slots for P.C.
   PSTRESS=    0.0 pullay stress

  Mass of Ions in am
   POMASS = 196.97
  Ionic Valenz
   ZVAL   =  11.00
  Atomic Wigner-Seitz radii
   NELECT =     352.0000    total number of electrons
   NUPDOWN=      -1.0000    fix difference up-down

 DOS related values:
   EMIN   =  10.00;   EMAX   =-10.00  energy-range for DOS
   ISMEAR =     1;   SIGMA  =   0.20  broadening in eV -4-tet -1-fermi 0-gaus

 Electronic relaxation 2 (details)
   IALGO  =     38    algorithm
   LDIAG  =      T    sub-space diagonalisation
   IMIX   =      4    mixing-type and parameters
     AMIX     =   0.40;   BMIX     =  1.00
     AMIX_MAG =   1.60;   BMIX_MAG =  1.00
     AMIN     =   0.10
     WC   =   100.;   INIMIX=   1;  MIXPRE=   1

 Intra band minimization:
   WEIMIN = 0.0000     energy-eigenvalue tresh-hold
   EBREAK =  0.12E-07  absolut break condition
   DEPER  =   0.30     relativ break condition

   TIME   =   0.10     timestep for ELM

  volume/ion in A,a.u.               =      20.35       137.34
  Fermi-wavevector in a.u.,eV,Ry     =   1.333538 24.195567  1.778324

[...]

[...]

 eigenvalues of (default mixing * dielectric matrix)
  average eigenvalue GAMMA=   0.9969
  0.9969

[...]

 eigenvalue-minimisations  :  2704
 total energy-change (2. order) :-0.3114790E-03  (-0.9786035E-04)
 number of electron  352.0000010 magnetization
 augmentation part   130.1561730 magnetization

[...]

 Broyden mixing:
  rms(total) = 0.10804E-02    rms(broyden)= 0.10803E-02
  rms(prec ) = 0.14595E-02
  weight for this iteration     100.00

 eigenvalues of (default mixing * dielectric matrix)
  average eigenvalue GAMMA=   1.3862
  2.5091  1.5743  1.0085  1.0085  0.8305

[...]

----------------------------------------- Iteration    1(   7)  ---------------------------------------

 eigenvalue-minimisations  :  1432
 total energy-change (2. order) : 0.1783541E-05  (-0.1030619E-05)
 number of electron  352.0000010 magnetization
 augmentation part   130.1451152 magnetization

 Free energy of the ion-electron system (eV)
  alpha Z        PSCENC =      2944.72857511
  Ewald energy   TEWEN  =    -29491.69857381
  -1/2 Hartree   DENC   =     -4382.18742669
  -V(xc)+E(xc)   XCENC  =       458.10430557
  PAW double counting   =     23579.16232606   -22891.00812039
  entropy T*S    EENTRO =        -0.02706432
  eigenvalues    EBANDS =        47.38257602
  atomic energy  EATOM  =     29633.77399530
  free energy    TOTEN  =      -101.76940715 eV

  energy without entropy =     -101.74234284  energy(sigma->0) =     -101.76038572

 average (electrostatic) potential at core
  the test charge radii are     1.2098
  (the norm of the test charge is              1.0000)
       1 -47.0731       2 -47.0753       3 -47.0753       4 -47.0731       5 -47.0730
       6 -47.0730       7 -47.0726       8 -47.0753       9 -47.0753      10 -47.0731
      11 -47.0730      12 -47.0731      13 -47.0730      14 -47.0731      15 -47.0705
      16 -47.0705      17 -47.0726      18 -47.0730      19 -47.0731      20 -47.0731
      21 -47.0730      22 -47.0730      23 -47.0705      24 -47.0705      25 -47.0726
      26 -47.0730      27 -47.0730      28 -47.0730      29 -47.0730      30 -47.0726
      31 -47.0730      32 -47.0731

 E-fermi :   3.5581     XC(G=0): -11.6807     alpha+bet : -8.5271
   add alpha+bet to get absolut eigen values

 k-point   1 :       0.0000    0.0000    0.0000
  band No.  band energies     occupation
      1      -4.4497      2.00000
      2      -2.3511      2.00000
      3      -2.3451      2.00000
      4      -2.3451      2.00000
      5      -2.3451      2.00000
      6      -2.3451      2.00000
      7      -2.3394      2.00000
      8      -2.2185      2.00000
      9      -2.2185      2.00000
     10      -2.2185      2.00000
     11      -2.2185      2.00000
     12      -1.9682      2.00000
     13      -1.9682      2.00000
     14      -1.9681      2.00000
     15      -1.7480      2.00000
     16      -1.7480      2.00000
     17      -1.7480      2.00000
     18      -1.2472      2.00000
     19      -1.2445      2.00000
     20      -1.2445      2.00000
     21      -1.2415      2.00000
     22      -1.2413      2.00000
     23      -1.2411      2.00000
     24      -1.2410      2.00000
     25      -1.2410      2.00000
     26      -1.2407      2.00000
     27      -1.2378      2.00000
     28      -1.2378      2.00000
     29      -1.2351      2.00000
     30      -1.1096      2.00000
     31      -1.1061      2.00000
     32      -1.1061      2.00000
     33      -1.1060      2.00000
     34      -1.1060      2.00000
     35      -1.1026      2.00000
     36      -1.0439      2.00000
     37      -1.0404      2.00000
     38      -1.0404      2.00000
     39      -1.0403      2.00000
     40      -1.0403      2.00000
     41      -1.0369      2.00000
     42      -0.5859      2.00000
     43      -0.5816      2.00000
     44      -0.5816      2.00000
     45      -0.5794      2.00000
     46      -0.5793      2.00000
     47      -0.5793      2.00000
     48      -0.5793      2.00000
     49      -0.5793      2.00000
     50      -0.5792      2.00000
     51      -0.5775      2.00000
     52      -0.5775      2.00000
     53      -0.5735      2.00000
     54      -0.5265      2.00000
     55      -0.5265      2.00000
     56      -0.5227      2.00000
     57      -0.5227      2.00000
     58      -0.5227      2.00000
     59      -0.5227      2.00000
     60      -0.5226      2.00000
[...]
    198       8.1897     -0.00000
    199       8.1898     -0.00000
    200       9.4475      0.00000
    201       9.4475      0.00000
    202       9.4533      0.00000
    203       9.4533      0.00000
    204       9.4540      0.00000
    205       9.4540      0.00000
    206       9.4541      0.00000
    207       9.4542      0.00000
    208       9.4547      0.00000
    209       9.4547      0.00000
    210       9.4604      0.00000
    211       9.4604      0.00000
    212      11.3154      0.00000

[...]

 k-point   6 :       0.3333    0.3333    0.3333
  band No.  band energies     occupation
      1      -3.6642      2.00000
      2      -2.9796      2.00000
      3      -2.9766      2.00000
      4      -2.9738      2.00000
      5      -2.4933      2.00000
      6      -2.4910      2.00000
      7      -2.4887      2.00000
      8      -2.3620      2.00000
      9      -1.7295      2.00000
     10      -1.7292      2.00000
     11      -1.7290      2.00000
     12      -1.6534      2.00000
     13      -1.6532      2.00000
     14      -1.6530      2.00000
     15      -1.6068      2.00000
     16      -1.6048      2.00000
     17      -1.6028      2.00000
     18      -1.4771      2.00000
     19      -1.4763      2.00000
     20      -1.4743      2.00000
     21      -1.4743      2.00000
     22      -1.4725      2.00000
     23      -1.4717      2.00000
     24      -1.4003      2.00000
     25      -1.3982      2.00000
     26      -1.3964      2.00000
     27      -1.3839      2.00000
     28      -1.3831      2.00000
     29      -1.3818      2.00000
     30      -1.3817      2.00000
     31      -1.3805      2.00000
     32      -1.3797      2.00000
     33      -1.3243      2.00000
     34      -1.3236      2.00000
     35      -1.3229      2.00000
     36      -1.0636      2.00000
     37      -1.0627      2.00000
     38      -1.0618      2.00000
     39      -0.9104      2.00000
     40      -0.9089      2.00000
     41      -0.9077      2.00000
     42      -0.9077      2.00000
     43      -0.9066      2.00000
     44      -0.9052      2.00000
     45      -0.6436      2.00000
     46      -0.6420      2.00000
     47      -0.6407      2.00000
     48      -0.6227      2.00000
     49      -0.6214      2.00000
     50      -0.6203      2.00000
     51      -0.6203      2.00000
     52      -0.6194      2.00000
     53      -0.6177      2.00000
     54      -0.5138      2.00000
     55      -0.5123      2.00000
     56      -0.5107      2.00000
     57      -0.4839      2.00000
     58      -0.4837      2.00000
     59      -0.4832      2.00000
     60      -0.3672      2.00000
[...]
    198       7.2206     -0.00000
    199       8.2744     -0.00000
    200       8.2749     -0.00000
    201       8.2768     -0.00000
    202       8.2768     -0.00000
    203       8.2787     -0.00000
    204       8.2793     -0.00000
    205       9.3672      0.00000
    206       9.3674      0.00000
    207       9.3693      0.00000
    208       9.3693      0.00000
    209       9.3713      0.00000
    210       9.3715      0.00000
    211       9.5565      0.00000
    212       9.5565      0.00000

 soft charge-density along one line, spin component           1
         0         1         2         3         4         5         6         7         8         9
 total charge-density along one line

------------------------ aborting loop because EDIFF is reached ----------------------------------------

  FREE ENERGIE OF THE ION-ELECTRON SYSTEM (eV)
  free  energy   TOTEN  =      -101.769407 eV

  energy  without entropy=     -101.742343  energy(sigma->0) =     -101.760386

  FORCE on cell =-STRESS in cart. coord.  units (eV/reduce length):
  Direction    X        Y        Z        XY       YZ       ZX
  Alpha Z   2944.73   2944.73   2944.73
  Ewald    -9830.69  -9830.56  -9830.56     -0.00     -0.00     -0.00
  Hartree   1460.65   1460.75   1460.75     -0.00     -0.00     -0.00
  E(xc)    -1576.24  -1576.24  -1576.24     -0.00     -0.00     -0.00
  Local     2368.86   2368.61   2368.61      0.00      0.00      0.00
  n-local  -1670.15  -1675.43  -1664.85      5.67      5.69      5.72
  augment   1377.32   1377.31   1377.31     -0.00     -0.00     -0.00
  Kinetic   4880.19   4875.40   4884.97      3.40      3.77      4.14
  Total      -45.34    -45.38    -45.38     -0.00     -0.00     -0.00
  in kB     -111.54   -111.64   -111.64     -0.00     -0.00     -0.00

 VOLUME and BASIS-vectors are now :
  energy-cutoff  :      600.00
  volume of cell :      651.25
      direct lattice vectors                 reciprocal lattice vectors
     8.667960810  0.000000000  0.000000000     0.115367388 -0.000000002 -0.000000002
     0.000000160  8.667960810  0.000000000     0.000000000  0.115367388 -0.000000002
     0.000000160  0.000000160  8.667960810     0.000000000  0.000000000  0.115367388

  length of vectors
     8.667960810  8.667960810  8.667960810     0.115367388  0.115367388  0.115367388

 FORCES acting on ions
    electron-ion (+dipol)            ewald-force                    non-local-force                 convergence-correction
   0.246E-01 0.140E+00 -.132E-07   -.256E-01 -.139E+00 0.142E-07   0.299E-03 -.134E-03 0.136E-19   0.135E-03 -.363E-03 0.319E-09
   0.878E+00 0.170E+01 -.884E-08   -.878E+00 -.170E+01 0.271E-09   -.596E-02 -.313E-02 -.237E-19   -.214E-03 -.153E-02 -.458E-09
   0.878E+00 -.289E-07 -.170E+01   -.878E+00 0.311E-07 0.170E+01   -.596E-02 0.577E-10 0.313E-02   -.214E-03 0.309E-09 0.153E-02
   0.246E-01 -.140E+00 0.760E-08   -.256E-01 0.139E+00 -.832E-08   0.299E-03 0.134E-03 0.136E-19   0.135E-03 0.363E-03 -.184E-09
   -.109E+01 -.820E-02 0.820E-02   0.110E+01 0.794E-02 -.794E-02   -.585E-02 0.191E-04 -.191E-04   0.521E-03 0.323E-03 -.323E-03
   -.574E+00 0.228E-08 0.385E-07   0.581E+00 -.157E-08 -.425E-07   -.389E-02 -.219E-19 0.000E+00   -.882E-03 0.546E-09 -.105E-08
   0.300E-01 -.140E+00 0.729E-08   -.308E-01 0.139E+00 -.799E-08   0.364E-03 0.366E-03 0.000E+00   -.189E-03 0.230E-03 -.176E-09
   0.878E+00 0.225E-07 0.170E+01   -.878E+00 -.311E-07 -.170E+01   -.596E-02 -.577E-10 -.313E-02   -.214E-03 -.486E-09 -.153E-02
   0.878E+00 -.170E+01 0.238E-08   -.878E+00 0.170E+01 -.271E-09   -.596E-02 0.313E-02 -.271E-19   -.214E-03 0.153E-02 0.281E-09
   0.246E-01 0.502E-08 -.140E+00   -.256E-01 -.575E-08 0.139E+00   0.299E-03 0.247E-11 0.134E-03   0.135E-03 -.178E-09 0.363E-03
   -.109E+01 -.820E-02 -.820E-02   0.110E+01 0.794E-02 0.794E-02   -.585E-02 0.191E-04 0.191E-04   0.521E-03 0.323E-03 0.323E-03
   -.696E+01 0.110E-06 0.317E-07   0.695E+01 -.122E-06 -.122E-06   0.691E-01 0.393E-19 0.000E+00   -.145E-01 0.163E-08 0.163E-08
   -.109E+01 0.820E-02 0.820E-02   0.110E+01 -.794E-02 -.794E-02   -.585E-02 -.191E-04 -.191E-04   0.521E-03 -.323E-03 -.323E-03
   -.237E+00 0.107E-07 0.107E-07   0.240E+00 -.113E-07 -.113E-07   0.265E-03 -.738E-20 0.000E+00   -.212E-02 -.468E-09 -.468E-09
   0.888E+00 -.167E+01 0.225E-08   -.889E+00 0.167E+01 -.244E-09   -.549E-02 0.266E-02 0.000E+00   -.685E-03 0.183E-02 0.279E-09
   0.888E+00 0.221E-07 0.167E+01   -.889E+00 -.306E-07 -.167E+01   -.549E-02 -.490E-10 -.266E-02   -.685E-03 -.427E-09 -.183E-02
   0.300E-01 0.140E+00 -.134E-07   -.308E-01 -.139E+00 0.145E-07   0.364E-03 -.366E-03 0.136E-19   -.189E-03 -.230E-03 0.295E-09
   0.613E+00 0.234E-02 -.234E-02   -.616E+00 -.238E-02 0.238E-02   0.957E-03 0.633E-04 -.633E-04   0.109E-02 -.270E-04 0.270E-04
   0.463E+00 -.214E-08 -.258E-07   -.456E+00 0.156E-08 0.268E-07   -.528E-02 0.686E-20 0.000E+00   0.214E-02 -.561E-09 0.886E-09
   0.246E-01 -.106E-07 0.140E+00   -.256E-01 0.117E-07 -.139E+00   0.299E-03 -.247E-11 -.134E-03   0.135E-03 0.312E-09 -.363E-03
   -.109E+01 0.820E-02 -.820E-02   0.110E+01 -.794E-02 0.794E-02   -.585E-02 -.191E-04 0.191E-04   0.521E-03 -.323E-03 0.323E-03
   -.574E+00 0.387E-07 0.227E-08   0.581E+00 -.425E-07 -.157E-08   -.389E-02 0.275E-19 0.000E+00   -.882E-03 -.105E-08 0.546E-09
   0.888E+00 -.286E-07 -.167E+01   -.889E+00 0.306E-07 0.167E+01   -.549E-02 0.490E-10 0.266E-02   -.685E-03 0.312E-09 0.183E-02
   0.888E+00 0.167E+01 -.873E-08   -.889E+00 -.167E+01 0.298E-09   -.549E-02 -.266E-02 0.000E+00   -.685E-03 -.183E-02 -.393E-09
   0.300E-01 -.108E-07 0.140E+00   -.308E-01 0.119E-07 -.139E+00   0.364E-03 -.675E-11 -.366E-03   -.189E-03 0.291E-09 -.230E-03
   0.613E+00 0.234E-02 0.234E-02   -.616E+00 -.238E-02 -.238E-02   0.957E-03 0.633E-04 0.633E-04   0.109E-02 -.270E-04 -.270E-04
   0.182E+01 -.485E-08 0.753E-07   -.183E+01 0.209E-08 0.209E-08   0.110E-01 -.587E-20 -.339E-20   -.213E-02 -.115E-08 -.115E-08
   0.613E+00 -.234E-02 -.234E-02   -.616E+00 0.238E-02 0.238E-02   0.957E-03 -.633E-04 -.633E-04   0.109E-02 0.270E-04 0.270E-04
   0.219E+00 -.952E-08 -.953E-08   -.224E+00 0.994E-08 0.994E-08   0.202E-02 -.103E-20 -.169E-20   0.195E-02 0.482E-09 0.482E-09
   0.300E-01 0.471E-08 -.140E+00   -.308E-01 -.542E-08 0.139E+00   0.364E-03 0.675E-11 0.366E-03   -.189E-03 -.172E-09 0.230E-03
   0.613E+00 -.234E-02 0.234E-02   -.616E+00 0.238E-02 -.238E-02   0.957E-03 -.633E-04 0.633E-04   0.109E-02 0.270E-04 -.270E-04
   0.463E+00 -.256E-07 -.214E-08   -.456E+00 0.268E-07 0.156E-08   -.528E-02 -.990E-22 -.136E-19   0.214E-02 0.886E-09 -.560E-09
   0.110E-01 -.697E-10 -.147E-09   -.107E-13 -.487E-12 0.220E-12   0.135E-02 -.122E-18 -.393E-18   -.117E-01 0.151E-09 0.150E-09

 POSITION                                       TOTAL-FORCE (eV/Angst)
      6.50097      6.50097      4.33398        -0.000575      0.000495     -0.000000
      6.50097      6.50097      0.00000        -0.007067     -0.008110      0.000000
      6.50097      0.00000      2.16699        -0.007067      0.000000      0.008110
      6.50097      2.16699      4.33398        -0.000575     -0.000495      0.000000
      0.00000      6.50097      2.16699         0.003918      0.000081     -0.000081
      0.00000      0.00000      4.33398         0.001611     -0.000000      0.000000
      2.16699      6.50097      4.33398        -0.000567     -0.000489     -0.000000
      6.50097      0.00000      6.50097        -0.007067     -0.000000     -0.008110
      6.50097      2.16699      0.00000        -0.007067      0.008110      0.000000
      6.50097      4.33398      2.16699        -0.000575     -0.000000     -0.000495
      0.00000      6.50097      6.50097         0.003918      0.000081      0.000081
      8.64796      0.00000      0.00000         0.041837     -0.000000      0.000000
      0.00000      2.16699      2.16699         0.003918     -0.000081     -0.000081
      0.00000      4.33398      4.33398         0.000782     -0.000000      0.000000
      2.16699      6.50097      0.00000        -0.006594      0.007391     -0.000000
      2.16699      0.00000      2.16699        -0.006594     -0.000000     -0.007391
      2.16699      2.16699      4.33398        -0.000567      0.000489      0.000000
      4.33398      6.50097      2.16699        -0.000567     -0.000008      0.000008
      4.33398      0.00000      4.33398         0.003689     -0.000000     -0.000000
      6.50097      4.33398      6.50097        -0.000575      0.000000      0.000495
      0.00000      2.16699      6.50097         0.003918     -0.000081      0.000081
      0.00000      4.33398      0.00000         0.001611      0.000000     -0.000000
      2.16699      0.00000      6.50097        -0.006594      0.000000      0.007391
      2.16699      2.16699      0.00000        -0.006594     -0.007391      0.000000
      2.16699      4.33398      2.16699        -0.000567      0.000000      0.000489
      4.33398      6.50097      6.50097        -0.000567     -0.000008     -0.000008
      4.33398      0.00000      0.00000        -0.005836      0.000000      0.000000
      4.33398      2.16699      2.16699        -0.000567      0.000008      0.000008
      4.33398      4.33398      4.33398        -0.001573     -0.000000      0.000000
      2.16699      4.33398      6.50097        -0.000567     -0.000000     -0.000489
      4.33398      2.16699      6.50097        -0.000567      0.000008     -0.000008
      4.33398      4.33398      0.00000         0.003689      0.000000      0.000000
    total drift:                                0.000657      0.000000      0.000000

 mean value of Nose-termostat <S>:     1.000 mean value of <T> :     0.000
 mean temperature <T/S>/<1/S>  :     0.000