 vasp.4.6.28 25Jul05 complex
 executed on             LinuxIFC date 2017.01.06  05:36:27

 INCAR:
 POTCAR:   PAW_PBE Ag 06Sep2000
 POTCAR:   PAW_PBE Ag 06Sep2000
   VRHFIN =Ag : s1 d10

   TITEL  = PAW_PBE Ag 06Sep2000
   POMASS =  107.868; ZVAL   =   11.000    mass and valenz
   ENMAX  =  249.846; ENMIN  =  187.385 eV
   QCUT   =   -4.285; QGAM   =    8.570    optimization parameters

   Description
     l     E      TYP  RCUT    TYP  RCUT
     2   .000     23  2.400
     2   .000     23  2.400
     0   .000     23  2.400
     0   .000     23  2.400
     1  -.200     23  2.400
     1  1.500     23  2.400
     3   .000      7   .000

 PAW_PBE Ag 06Sep2000                   :

 POSCAR: Ag
  positions in direct lattice
  velocities in cartesian coordinates

 ion  position               nearest neighbor table
   1  0.000  0.000  0.000-   2 2.86   3 2.86   4 2.86   3 2.86   4 2.86   2 2.86   4 2.86   4 2.86
                             2 2.86   3 2.86   3 2.86   2 2.86
   2  0.500  0.500  0.000-   1 2.86   3 2.86   4 2.86   3 2.86   4 2.86   1 2.86   3 2.86   3 2.86
                             1 2.86   4 2.86   4 2.86   1 2.86
   3  0.500  0.000  0.500-   1 2.86   2 2.86   4 2.86   1 2.86   2 2.86   2 2.86   4 2.86   2 2.86
                             1 2.86   4 2.86   1 2.86   4 2.86
   4  0.000  0.500  0.500-   1 2.86   2 2.86   3 2.86   1 2.86   2 2.86   1 2.86   3 2.86   1 2.86
                             2 2.86   3 2.86   2 2.86   3 2.86

  LATTYP: Found a simple cubic cell.
 ALAT       =     4.0383280382

  Lattice vectors:

 A1 = (   4.0383280382,   0.0000000000,   0.0000000000)
 A2 = (   0.0000000000,   4.0383280382,   0.0000000000)
 A3 = (   0.0000000000,   0.0000000000,   4.0383280382)
 Subroutine PRICEL returns following result:

  LATTYP: Found a face centered cubic cell.
 ALAT       =     4.0383280382

  Lattice vectors:

 A1 = (   2.0191640191,   2.0191640191,  -0.0000000000)
 A2 = (   2.0191640191,   0.0000000000,  -2.0191640191)
 A3 = (   0.0000000000,   2.0191640191,  -2.0191640191)

   4 primitive cells build up your supercell.

Analysis of symmetry for initial positions (statically):

 Routine SETGRP: Setting up the symmetry group for a
 simple cubic supercell.

 Subroutine GETGRP returns: Found 48 space group operations
 (whereof 48 operations were pure point group operations)
 out of a pool of 48 trial point group operations.

The static configuration has the point symmetry O_h .

Analysis of symmetry for dynamics (positions and initial velocities):

 Subroutine DYNSYM returns: Found 48 space group operations
 (whereof 48 operations were pure point group operations)
 out of a pool of 48 trial space group operations
 (whereof 48 operations were pure point group operations)
 and found also     4 'primitive' translations

The dynamic configuration has the point symmetry O_h .

 KPOINTS: Automatic mesh

Automatic generation of k-mesh.

 Subroutine IBZKPT returns following result:

 Found     84 irreducible k-points:

 Following reciprocal coordinates:
            Coordinates               Weight
  0.000000  0.000000  0.000000      1.000000
  0.083333  0.000000  0.000000      6.000000
  0.166667  0.000000  0.000000      6.000000
  0.250000  0.000000  0.000000      6.000000
  0.333333  0.000000  0.000000      6.000000
  0.416667  0.000000  0.000000      6.000000
  0.500000  0.000000  0.000000      3.000000
  0.083333  0.083333  0.000000     12.000000
  0.166667  0.083333  0.000000     24.000000
  0.250000  0.083333  0.000000     24.000000
  0.333333  0.083333  0.000000     24.000000
  0.416667  0.083333  0.000000     24.000000
  0.500000  0.083333  0.000000     12.000000
  0.166667  0.166667  0.000000     12.000000
  0.250000  0.166667  0.000000     24.000000
  0.333333  0.166667  0.000000     24.000000
  0.416667  0.166667  0.000000     24.000000
  0.500000  0.166667  0.000000     12.000000
  0.250000  0.250000  0.000000     12.000000
  0.333333  0.250000  0.000000     24.000000
  0.416667  0.250000  0.000000     24.000000
  0.500000  0.250000  0.000000     12.000000
  0.333333  0.333333  0.000000     12.000000
  0.416667  0.333333  0.000000     24.000000
  0.500000  0.333333  0.000000     12.000000
  0.416667  0.416667  0.000000     12.000000
  0.500000  0.416667  0.000000     12.000000
  0.500000  0.500000  0.000000      3.000000
  0.083333  0.083333  0.083333      8.000000
  0.166667  0.083333  0.083333     24.000000
  0.250000  0.083333  0.083333     24.000000
  0.333333  0.083333  0.083333     24.000000
  0.416667  0.083333  0.083333     24.000000
  0.500000  0.083333  0.083333     12.000000
  0.166667  0.166667  0.083333     24.000000
  0.250000  0.166667  0.083333     48.000000
  0.333333  0.166667  0.083333     48.000000
  0.416667  0.166667  0.083333     48.000000
  0.500000  0.166667  0.083333     24.000000
  0.250000  0.250000  0.083333     24.000000
  0.333333  0.250000  0.083333     48.000000
  0.416667  0.250000  0.083333     48.000000
  0.500000  0.250000  0.083333     24.000000
  0.333333  0.333333  0.083333     24.000000
  0.416667  0.333333  0.083333     48.000000
  0.500000  0.333333  0.083333     24.000000
  0.416667  0.416667  0.083333     24.000000
  0.500000  0.416667  0.083333     24.000000
  0.500000  0.500000  0.083333      6.000000
  0.166667  0.166667  0.166667      8.000000
  0.250000  0.166667  0.166667     24.000000
  0.333333  0.166667  0.166667     24.000000
  0.416667  0.166667  0.166667     24.000000
  0.500000  0.166667  0.166667     12.000000
  0.250000  0.250000  0.166667     24.000000
  0.333333  0.250000  0.166667     48.000000
  0.416667  0.250000  0.166667     48.000000
  0.500000  0.250000  0.166667     24.000000
  0.333333  0.333333  0.166667     24.000000
  0.416667  0.333333  0.166667     48.000000
[...]
  0.416667  0.333333  0.250000     48.000000
  0.500000  0.333333  0.250000     24.000000
  0.416667  0.416667  0.250000     24.000000
  0.500000  0.416667  0.250000     24.000000
  0.500000  0.500000  0.250000      6.000000
  0.333333  0.333333  0.333333      8.000000
  0.416667  0.333333  0.333333     24.000000
  0.500000  0.333333  0.333333     12.000000
  0.416667  0.416667  0.333333     24.000000
  0.500000  0.416667  0.333333     24.000000
  0.500000  0.500000  0.333333      6.000000
  0.416667  0.416667  0.416667      8.000000
  0.500000  0.416667  0.416667     12.000000
  0.500000  0.500000  0.416667      6.000000
  0.500000  0.500000  0.500000      1.000000

 Following cartesian coordinates:
            Coordinates               Weight
  0.000000  0.000000  0.000000      1.000000
  0.020017  0.000000  0.000000      6.000000
  0.040033  0.000000  0.000000      6.000000
  0.060050  0.000000  0.000000      6.000000
  0.080066  0.000000  0.000000      6.000000
  0.100083  0.000000  0.000000      6.000000
  0.120099  0.000000  0.000000      3.000000
  0.020017  0.020017  0.000000     12.000000
  0.040033  0.020017  0.000000     24.000000
  0.060050  0.020017  0.000000     24.000000
  0.080066  0.020017  0.000000     24.000000
  0.100083  0.020017  0.000000     24.000000
  0.120099  0.020017  0.000000     12.000000
  0.040033  0.040033  0.000000     12.000000
  0.060050  0.040033  0.000000     24.000000
  0.080066  0.040033  0.000000     24.000000
  0.100083  0.040033  0.000000     24.000000
  0.120099  0.040033  0.000000     12.000000
  0.060050  0.060050  0.000000     12.000000
  0.080066  0.060050  0.000000     24.000000
  0.100083  0.060050  0.000000     24.000000
  0.120099  0.060050  0.000000     12.000000
  0.080066  0.080066  0.000000     12.000000
  0.100083  0.080066  0.000000     24.000000
  0.120099  0.080066  0.000000     12.000000
  0.100083  0.100083  0.000000     12.000000
  0.120099  0.100083  0.000000     12.000000
  0.120099  0.120099  0.000000      3.000000
  0.020017  0.020017  0.020017      8.000000
  0.040033  0.020017  0.020017     24.000000
  0.060050  0.020017  0.020017     24.000000
  0.080066  0.020017  0.020017     24.000000
  0.100083  0.020017  0.020017     24.000000
  0.120099  0.020017  0.020017     12.000000
  0.040033  0.040033  0.020017     24.000000
  0.060050  0.040033  0.020017     48.000000
  0.080066  0.040033  0.020017     48.000000
  0.100083  0.040033  0.020017     48.000000
  0.120099  0.040033  0.020017     24.000000
  0.060050  0.060050  0.020017     24.000000
  0.080066  0.060050  0.020017     48.000000
  0.100083  0.060050  0.020017     48.000000
  0.120099  0.060050  0.020017     24.000000
  0.080066  0.080066  0.020017     24.000000
  0.100083  0.080066  0.020017     48.000000
  0.120099  0.080066  0.020017     24.000000
  0.100083  0.100083  0.020017     24.000000
  0.120099  0.100083  0.020017     24.000000
  0.120099  0.120099  0.020017      6.000000
  0.040033  0.040033  0.040033      8.000000
  0.060050  0.040033  0.040033     24.000000
  0.080066  0.040033  0.040033     24.000000
  0.100083  0.040033  0.040033     24.000000
  0.120099  0.040033  0.040033     12.000000
  0.060050  0.060050  0.040033     24.000000
  0.080066  0.060050  0.040033     48.000000
  0.100083  0.060050  0.040033     48.000000
  0.120099  0.060050  0.040033     24.000000
  0.080066  0.080066  0.040033     24.000000
  0.100083  0.080066  0.040033     48.000000
[...]
  0.100083  0.080066  0.060050     48.000000
  0.120099  0.080066  0.060050     24.000000
  0.100083  0.100083  0.060050     24.000000
  0.120099  0.100083  0.060050     24.000000
  0.120099  0.120099  0.060050      6.000000
  0.080066  0.080066  0.080066      8.000000
  0.100083  0.080066  0.080066     24.000000
  0.120099  0.080066  0.080066     12.000000
  0.100083  0.100083  0.080066     24.000000
  0.120099  0.100083  0.080066     24.000000
  0.120099  0.120099  0.080066      6.000000
  0.100083  0.100083  0.100083      8.000000
  0.120099  0.100083  0.100083     12.000000
  0.120099  0.120099  0.100083      6.000000
  0.120099  0.120099  0.120099      1.000000

 I would recommend the setting:
   dimension x,y,z NGX =    36 NGY =   36 NGZ =   36
 SYSTEM =  unknown system
 POSCAR =  Ag

 Startparameter for this run:
   NWRITE =      2    write-flag & timer
   PREC   = accura    medium, high low
   ISTART =      0    job   : 0-new  1-cont  2-samecut
   ICHARG =      2    charge: 1-file 2-atom 10-const
   ISPIN  =      1    spin polarized calculation?
   LNONCOLLINEAR =      F non collinear calculations
   LSORBIT =      F    spin-orbit coupling
   INIWAV =      1    electr: 0-lowe 1-rand  2-diag
   LASPH  =      F    aspherical Exc in radial PAW
   METAGGA=      F    non-selfconsistent MetaGGA calc.

 Electronic Relaxation 1
   ENCUT  =  750.0 eV  55.12 Ry    7.42 a.u.   9.02  9.02  9.02*2*pi/ulx,y,z
   ENINI  =  750.0     initial cutoff
   ENAUG  =  412.5 eV  augmentation charge cutoff
   NELM   =     60;   NELMIN=  2; NELMDL=  0     # of ELM steps
   EDIFF  = 0.1E-07   stopping-criterion for ELM
   LREAL  =      F    real-space projection
   LCOMPAT=      F    compatible to vasp.4.4
   LREAL_COMPAT= F    compatible to vasp.4.5.1-3
   GGA_COMPAT  = T    GGA compatible to vasp.4.4-vasp.4.6
   LMAXPAW     = -100 max onsite density
   LMAXMIX     =    2 max onsite mixed and CHGCAR
[...]
   0.33333333  0.25000000  0.00000000       0.014
   0.41666667  0.25000000  0.00000000       0.014
   0.50000000  0.25000000  0.00000000       0.007
   0.33333333  0.33333333  0.00000000       0.007
   0.41666667  0.33333333  0.00000000       0.014
   0.50000000  0.33333333  0.00000000       0.007
   0.41666667  0.41666667  0.00000000       0.007
   0.50000000  0.41666667  0.00000000       0.007
   0.50000000  0.50000000  0.00000000       0.002
   0.08333333  0.08333333  0.08333333       0.005
   0.16666667  0.08333333  0.08333333       0.014
   0.25000000  0.08333333  0.08333333       0.014
   0.33333333  0.08333333  0.08333333       0.014
   0.41666667  0.08333333  0.08333333       0.014
   0.50000000  0.08333333  0.08333333       0.007
   0.16666667  0.16666667  0.08333333       0.014
   0.25000000  0.16666667  0.08333333       0.028
   0.33333333  0.16666667  0.08333333       0.028
   0.41666667  0.16666667  0.08333333       0.028
   0.50000000  0.16666667  0.08333333       0.014
   0.25000000  0.25000000  0.08333333       0.014
   0.33333333  0.25000000  0.08333333       0.028
   0.41666667  0.25000000  0.08333333       0.028
   0.50000000  0.25000000  0.08333333       0.014
   0.33333333  0.33333333  0.08333333       0.014
   0.41666667  0.33333333  0.08333333       0.028
   0.50000000  0.33333333  0.08333333       0.014
   0.41666667  0.41666667  0.08333333       0.014
   0.50000000  0.41666667  0.08333333       0.014
   0.50000000  0.50000000  0.08333333       0.003
   0.16666667  0.16666667  0.16666667       0.005
   0.25000000  0.16666667  0.16666667       0.014
   0.33333333  0.16666667  0.16666667       0.014
   0.41666667  0.16666667  0.16666667       0.014
   0.50000000  0.16666667  0.16666667       0.007
   0.25000000  0.25000000  0.16666667       0.014
   0.33333333  0.25000000  0.16666667       0.028
   0.41666667  0.25000000  0.16666667       0.028
   0.50000000  0.25000000  0.16666667       0.014
   0.33333333  0.33333333  0.16666667       0.014
   0.41666667  0.33333333  0.16666667       0.028
[...]
   0.41666667  0.33333333  0.25000000       0.028
   0.50000000  0.33333333  0.25000000       0.014
   0.41666667  0.41666667  0.25000000       0.014
   0.50000000  0.41666667  0.25000000       0.014
   0.50000000  0.50000000  0.25000000       0.003
   0.33333333  0.33333333  0.33333333       0.005
   0.41666667  0.33333333  0.33333333       0.014
   0.50000000  0.33333333  0.33333333       0.007
   0.41666667  0.41666667  0.33333333       0.014
   0.50000000  0.41666667  0.33333333       0.014
   0.50000000  0.50000000  0.33333333       0.003
   0.41666667  0.41666667  0.41666667       0.005
   0.50000000  0.41666667  0.41666667       0.007
   0.50000000  0.50000000  0.41666667       0.003
   0.50000000  0.50000000  0.50000000       0.001

 position of ions in fractional coordinates (direct lattice)
   0.00000000  0.00000000  0.00000000
   0.50000000  0.50000000  0.00000000
   0.50000000  0.00000000  0.50000000
   0.00000000  0.50000000  0.50000000

 position of ions in cartesian coordinates  (Angst):
   0.00000000  0.00000000  0.00000000
   2.01916402  2.01916402  0.00000000
   2.01916402  0.00000000  2.01916402
   0.00000000  2.01916402  2.01916402

 k-point  1 :  0.00000.00000.0000  plane waves:   3071
 k-point  2 :  0.08330.00000.0000  plane waves:   3034
 k-point  3 :  0.16670.00000.0000  plane waves:   3042
 k-point  4 :  0.25000.00000.0000  plane waves:   3054
 k-point  5 :  0.33330.00000.0000  plane waves:   3062
 k-point  6 :  0.41670.00000.0000  plane waves:   3074
 k-point  7 :  0.50000.00000.0000  plane waves:   3082
 k-point  8 :  0.08330.08330.0000  plane waves:   3041
 k-point  9 :  0.16670.08330.0000  plane waves:   3058
 k-point 10 :  0.25000.08330.0000  plane waves:   3064
 k-point 11 :  0.33330.08330.0000  plane waves:   3069
 k-point 12 :  0.41670.08330.0000  plane waves:   3061
 k-point 13 :  0.50000.08330.0000  plane waves:   3060
 k-point 14 :  0.16670.16670.0000  plane waves:   3057
 k-point 15 :  0.25000.16670.0000  plane waves:   3059
 k-point 16 :  0.33330.16670.0000  plane waves:   3065
 k-point 17 :  0.41670.16670.0000  plane waves:   3055
 k-point 18 :  0.50000.16670.0000  plane waves:   3068
 k-point 19 :  0.25000.25000.0000  plane waves:   3063
 k-point 20 :  0.33330.25000.0000  plane waves:   3063
 k-point 21 :  0.41670.25000.0000  plane waves:   3067
 k-point 22 :  0.50000.25000.0000  plane waves:   3090
 k-point 23 :  0.33330.33330.0000  plane waves:   3069
 k-point 24 :  0.41670.33330.0000  plane waves:   3079
 k-point 25 :  0.50000.33330.0000  plane waves:   3062
 k-point 26 :  0.41670.41670.0000  plane waves:   3068
 k-point 27 :  0.50000.41670.0000  plane waves:   3076
 k-point 28 :  0.50000.50000.0000  plane waves:   3048
 k-point 29 :  0.08330.08330.0833  plane waves:   3047
 k-point 30 :  0.16670.08330.0833  plane waves:   3060
 k-point 31 :  0.25000.08330.0833  plane waves:   3074
 k-point 32 :  0.33330.08330.0833  plane waves:   3072
 k-point 33 :  0.41670.08330.0833  plane waves:   3060
 k-point 34 :  0.50000.08330.0833  plane waves:   3060
 k-point 35 :  0.16670.16670.0833  plane waves:   3058
 k-point 36 :  0.25000.16670.0833  plane waves:   3069
 k-point 37 :  0.33330.16670.0833  plane waves:   3072
 k-point 38 :  0.41670.16670.0833  plane waves:   3057
 k-point 39 :  0.50000.16670.0833  plane waves:   3066
 k-point 40 :  0.25000.25000.0833  plane waves:   3070
 k-point 41 :  0.33330.25000.0833  plane waves:   3066
 k-point 42 :  0.41670.25000.0833  plane waves:   3074
 k-point 43 :  0.50000.25000.0833  plane waves:   3066
 k-point 44 :  0.33330.33330.0833  plane waves:   3065
 k-point 45 :  0.41670.33330.0833  plane waves:   3077
 k-point 46 :  0.50000.33330.0833  plane waves:   3068
 k-point 47 :  0.41670.41670.0833  plane waves:   3082
 k-point 48 :  0.50000.41670.0833  plane waves:   3084
 k-point 49 :  0.50000.50000.0833  plane waves:   3092
 k-point 50 :  0.16670.16670.1667  plane waves:   3050
 k-point 51 :  0.25000.16670.1667  plane waves:   3079
 k-point 52 :  0.33330.16670.1667  plane waves:   3075
 k-point 53 :  0.41670.16670.1667  plane waves:   3063
 k-point 54 :  0.50000.16670.1667  plane waves:   3066
 k-point 55 :  0.25000.25000.1667  plane waves:   3074
 k-point 56 :  0.33330.25000.1667  plane waves:   3071
 k-point 57 :  0.41670.25000.1667  plane waves:   3072
 k-point 58 :  0.50000.25000.1667  plane waves:   3074
 k-point 59 :  0.33330.33330.1667  plane waves:   3093
 k-point 60 :  0.41670.33330.1667  plane waves:   3092
[...]
 k-point 70 :  0.41670.33330.2500  plane waves:   3071
 k-point 71 :  0.50000.33330.2500  plane waves:   3076
 k-point 72 :  0.41670.41670.2500  plane waves:   3081
 k-point 73 :  0.50000.41670.2500  plane waves:   3078
 k-point 74 :  0.50000.50000.2500  plane waves:   3072
 k-point 75 :  0.33330.33330.3333  plane waves:   3085
 k-point 76 :  0.41670.33330.3333  plane waves:   3074
 k-point 77 :  0.50000.33330.3333  plane waves:   3080
 k-point 78 :  0.41670.41670.3333  plane waves:   3081
 k-point 79 :  0.50000.41670.3333  plane waves:   3072
 k-point 80 :  0.50000.50000.3333  plane waves:   3092
 k-point 81 :  0.41670.41670.4167  plane waves:   3082
 k-point 82 :  0.50000.41670.4167  plane waves:   3090
 k-point 83 :  0.50000.50000.4167  plane waves:   3080
 k-point 84 :  0.50000.50000.5000  plane waves:   3112

 maximum and minimum number of plane-waves per node :   3112  3034

 maximum number of plane-waves:   3112
 maximal index in each direction:
   IXMAX=  9   IYMAX=  9   IZMAX=  9
   IXMIN= -9   IYMIN= -9   IZMIN= -9

 WARNING: wrap around error must be expected set NGX to  38
 WARNING: wrap around error must be expected set NGY to  38
 WARNING: wrap around error must be expected set NGZ to  38

 parallel 3dFFT wavefunction:
    minimum data exchange during FFTs selected (reduces bandwidth)
 parallel 3dFFT charge:
    minimum data exchange during FFTs selected (reduces bandwidth)

Broyden mixing: mesh for mixing (old mesh)
   NGX = 19   NGY = 19   NGZ = 19
  (NGX  = 72   NGY  = 72   NGZ  = 72)
 gives a total of   6859 points
 initial charge density was supplied:
 charge density of overlapping atoms calculated
 number of electron   44.0000000 magnetization
 keeping initial charge density in first step

 Maximum index for augmentation-charges        67485 (set IRDMAX)

 First call to EWALD:  gamma=   0.439
 Maximum number of real-space cells 3x 3x 3
 Maximum number of reciprocal cells 3x 3x 3

----------------------------------------- Iteration    1(   1)  ---------------------------------------

 eigenvalue-minimisations  :  4704
 total energy-change (2. order) : 0.4881432E+03  (-0.2815852E+04)
 number of electron   44.0000000 magnetization
 augmentation part    44.0000000 magnetization

 Free energy of the ion-electron system (eV)
  alpha Z        PSCENC =       431.42334922
  Ewald energy   TEWEN  =     -3956.36293739
  -1/2 Hartree   DENC   =      -788.60314056
  -V(xc)+E(xc)   XCENC  =       -42.38785273
  PAW double counting   =      3482.67677651    -3297.07979946
  entropy T*S    EENTRO =        -0.00012275
  eigenvalues    EBANDS =       508.82727732
  atomic energy  EATOM  =      4149.64961272
  free energy    TOTEN  =       488.14316288 eV

  energy without entropy =      488.14328563  energy(sigma->0) =      488.14322426

[...]

 eigenvalue-minimisations  :  4736
 total energy-change (2. order) :-0.4845543E+03  (-0.4635827E+03)
 number of electron   44.0000000 magnetization
 augmentation part    44.0000000 magnetization

[...]

 Broyden mixing:
  rms(total) = 0.59813E+00    rms(broyden)= 0.59813E+00
  rms(prec ) = 0.14900E+01
  weight for this iteration     100.00

[...]

 eigenvalues of (default mixing * dielectric matrix)
  average eigenvalue GAMMA=   1.1076
  1.1076

[...]

 eigenvalue-minimisations  :  5008
 total energy-change (2. order) :-0.1246383E-03  (-0.2068522E-04)
 number of electron   44.0000001 magnetization
 augmentation part    21.0516018 magnetization

[...]

 Broyden mixing:
  rms(total) = 0.10461E-05    rms(broyden)= 0.10461E-05
  rms(prec ) = 0.22861E-05
  weight for this iteration     100.00

 eigenvalues of (default mixing * dielectric matrix)
  average eigenvalue GAMMA=   1.7832
  3.0925  2.6612  2.5229  2.5229  1.2737  1.0184  1.0184  1.0199  0.9186

[...]

----------------------------------------- Iteration    1(  15)  ---------------------------------------

 eigenvalue-minimisations  :  2528
 total energy-change (2. order) : 0.2963134E-08  (-0.1050837E-11)
 number of electron   44.0000001 magnetization
 augmentation part    21.0503725 magnetization

 Free energy of the ion-electron system (eV)
  alpha Z        PSCENC =       431.42334922
  Ewald energy   TEWEN  =     -3956.36293739
  -1/2 Hartree   DENC   =      -739.13429093
  -V(xc)+E(xc)   XCENC  =       -44.17921776
  PAW double counting   =      3495.93807647    -3320.73389070
  entropy T*S    EENTRO =        -0.00015479
  eigenvalues    EBANDS =       -27.72902100
  atomic energy  EATOM  =      4149.64961272
  free energy    TOTEN  =       -11.12847418 eV

  energy without entropy =      -11.12831939  energy(sigma->0) =      -11.12839678

 average (electrostatic) potential at core
  the test charge radii are     1.1249
  (the norm of the test charge is              1.0000)
       1 -41.0475       2 -41.0475       3 -41.0475       4 -41.0475

 E-fermi :   3.8733     XC(G=0): -12.4203     alpha+bet : -8.8439
   add alpha+bet to get absolut eigen values

 k-point   1 :       0.0000    0.0000    0.0000
  band No.  band energies     occupation
      1      -4.1876      2.00000
      2      -2.8653      2.00000
      3      -2.8653      2.00000
      4      -2.8653      2.00000
      5      -2.7148      2.00000
      6      -2.7148      2.00000
      7      -2.7148      2.00000
      8      -1.1231      2.00000
      9      -1.1231      2.00000
     10      -1.1231      2.00000
     11      -0.0206      2.00000
     12      -0.0206      2.00000
     13       0.7914      2.00000
     14       0.7914      2.00000
     15       0.7914      2.00000
     16       1.0450      2.00000
     17       1.0450      2.00000
     18       1.0450      2.00000
     19       1.0450      2.00000
     20       1.0450      2.00000
     21       1.0450      2.00000
     22       5.4298      0.00000
     23       5.4298      0.00000
     24       5.4298      0.00000
     25      10.8703      0.00000
     26      10.8703      0.00000
     27      10.8703      0.00000
     28      14.9035      0.00000

[...]

 k-point  84 :       0.5000    0.5000    0.5000
  band No.  band energies     occupation
      1      -2.8047      2.00000
      2      -2.8047      2.00000
      3      -2.8047      2.00000
      4      -2.8047      2.00000
      5      -1.1478      2.00000
      6      -1.1478      2.00000
      7      -1.1478      2.00000
      8      -1.1478      2.00000
      9      -1.1478      2.00000
     10      -1.1478      2.00000
     11      -1.1478      2.00000
     12      -1.1478      2.00000
     13       0.8242      2.00000
     14       0.8242      2.00000
     15       0.8242      2.00000
     16       0.8242      2.00000
     17       0.8242      2.00000
     18       0.8242      2.00000
     19       0.8242      2.00000
     20       0.8242      2.00000
     21       3.3405      2.00000
     22       3.3405      2.00000
     23       3.3405      2.00000
     24       3.3405      2.00000
     25       7.6531      0.00000
     26       7.6531      0.00000
     27       7.6531      0.00000
     28       7.6531      0.00000

 soft charge-density along one line, spin component           1
         0         1         2         3         4         5         6         7         8         9
 total charge-density along one line

------------------------ aborting loop because EDIFF is reached ----------------------------------------

  FREE ENERGIE OF THE ION-ELECTRON SYSTEM (eV)
  free  energy   TOTEN  =       -11.128474 eV

  energy  without entropy=      -11.128319  energy(sigma->0) =      -11.128397

  FORCE on cell =-STRESS in cart. coord.  units (eV/reduce length):
  Direction    X        Y        Z        XY       YZ       ZX
  Alpha Z    431.42    431.42    431.42
  Ewald    -1318.79  -1318.79  -1318.79     -0.00     -0.00      0.00
  Hartree    246.38    246.38    246.38      0.00     -0.00     -0.00
  E(xc)     -233.32   -233.32   -233.32      0.00     -0.00      0.00
  Local      423.48    423.48    423.48     -0.00      0.00      0.00
  n-local   -251.87   -260.09   -262.67      0.39      2.41      0.78
  augment    167.92    167.92    167.92     -0.00     -0.00     -0.00
  Kinetic    552.95    544.39    539.04     -3.16      0.08     -1.33
  Total        4.35      4.35      4.35      0.00      0.00     -0.00
  in kB      105.77    105.77    105.77      0.00      0.00     -0.00

 VOLUME and BASIS-vectors are now :
  energy-cutoff  :      750.00
  volume of cell :       65.86
      direct lattice vectors                 reciprocal lattice vectors
     4.038328038  0.000000000  0.000000000     0.247627233  0.000000000  0.000000000
     0.000000000  4.038328038  0.000000000     0.000000000  0.247627233  0.000000000
     0.000000000  0.000000000  4.038328038     0.000000000  0.000000000  0.247627233

  length of vectors
     4.038328038  4.038328038  4.038328038     0.247627233  0.247627233  0.247627233

 FORCES acting on ions
    electron-ion (+dipol)            ewald-force                    non-local-force                 convergence-correction
   -.459E-13 -.282E-13 -.427E-13   0.137E-13 -.987E-14 -.130E-13   -.129E-24 0.181E-24 0.000E+00   -.488E-13 -.299E-13 -.138E-13
   0.265E-12 0.224E-11 0.146E-11   0.829E-14 0.446E-15 -.131E-13   0.775E-25 -.775E-25 -.359E-24   0.105E-13 0.235E-14 -.340E-13
   0.265E-12 -.275E-13 0.473E-11   -.372E-15 -.930E-15 0.127E-13   0.000E+00 -.181E-24 0.969E-25   0.801E-14 -.258E-13 -.123E-14
   -.463E-13 0.277E-12 0.258E-12   -.238E-13 0.939E-14 0.126E-13   -.155E-24 0.775E-25 -.194E-25   -.543E-13 0.681E-14 0.404E-14
   0.438E-12 0.247E-11 0.641E-11   -.221E-14 -.967E-15 -.820E-15   -.207E-24 0.000E+00 -.281E-24   -.846E-13 -.465E-13 -.449E-13

 POSITION                                       TOTAL-FORCE (eV/Angst)
      0.00000      0.00000      0.00000         0.000000      0.000000      0.000000
      2.01916      2.01916      0.00000         0.000000      0.000000      0.000000
      2.01916      0.00000      2.01916         0.000000      0.000000     -0.000000
      0.00000      2.01916      2.01916         0.000000     -0.000000     -0.000000
    total drift:                                0.000000      0.000000      0.000000

 mean value of Nose-termostat <S>:     1.000 mean value of <T> :     0.000
 mean temperature <T/S>/<1/S>  :     0.000