 vasp.4.6.28 25Jul05 complex
 executed on             LinuxIFC date 2017.01.14  04:07:52

 INCAR:
 POTCAR:   PAW_PBE Cu 05Jan2001
 POTCAR:   PAW_PBE Cu 05Jan2001
   VRHFIN =Cu: d10 p1

   TITEL  = PAW_PBE Cu 05Jan2001
   POMASS =   63.546; ZVAL   =   11.000    mass and valenz
   ENMAX  =  273.214; ENMIN  =  204.910 eV
   QCUT   =   -4.481; QGAM   =    8.962    optimization parameters

   Description
     l     E      TYP  RCUT    TYP  RCUT
     2   .000     23  2.300
     2   .000     23  2.300
     0   .000     23  2.300
     0   .000     23  2.300
     1  -.200     23  2.300
     1   .000     23  2.300
     3   .000      7   .000

 PAW_PBE Cu 05Jan2001                   :

 POSCAR: Cu
  positions in direct lattice
  velocities in cartesian coordinates

 ion  position               nearest neighbor table
   1  0.000  0.000  0.000-   2 2.62   3 2.62   4 2.62   3 2.62   4 2.62   2 2.62   4 2.62   4 2.62
                             2 2.62   3 2.62   3 2.62   2 2.62
   2  0.500  0.500  0.000-   1 2.62   3 2.62   4 2.62   3 2.62   4 2.62   1 2.62   3 2.62   3 2.62
                             1 2.62   4 2.62   4 2.62   1 2.62
   3  0.500  0.000  0.500-   1 2.62   2 2.62   4 2.62   1 2.62   2 2.62   2 2.62   4 2.62   2 2.62
                             1 2.62   4 2.62   1 2.62   4 2.62
   4  0.000  0.500  0.500-   1 2.62   2 2.62   3 2.62   1 2.62   2 2.62   1 2.62   3 2.62   1 2.62
                             2 2.62   3 2.62   2 2.62   3 2.62

  LATTYP: Found a simple cubic cell.
 ALAT       =     3.7095607097

  Lattice vectors:

 A1 = (   3.7095607097,   0.0000000000,   0.0000000000)
 A2 = (   0.0000000000,   3.7095607097,   0.0000000000)
 A3 = (   0.0000000000,   0.0000000000,   3.7095607097)
 Subroutine PRICEL returns following result:

  LATTYP: Found a face centered cubic cell.
 ALAT       =     3.7095607097

  Lattice vectors:

 A1 = (   1.8547803548,   1.8547803548,   0.0000000000)
 A2 = (   1.8547803548,   0.0000000000,  -1.8547803548)
 A3 = (   0.0000000000,   1.8547803548,  -1.8547803548)

   4 primitive cells build up your supercell.

Analysis of symmetry for initial positions (statically):

 Routine SETGRP: Setting up the symmetry group for a
 simple cubic supercell.

 Subroutine GETGRP returns: Found 48 space group operations
 (whereof 48 operations were pure point group operations)
 out of a pool of 48 trial point group operations.

The static configuration has the point symmetry O_h .

Analysis of symmetry for dynamics (positions and initial velocities):

 Subroutine DYNSYM returns: Found 48 space group operations
 (whereof 48 operations were pure point group operations)
 out of a pool of 48 trial space group operations
 (whereof 48 operations were pure point group operations)
 and found also     4 'primitive' translations

The dynamic configuration has the point symmetry O_h .

 KPOINTS: Automatic mesh

Automatic generation of k-mesh.

 Subroutine IBZKPT returns following result:

 Found   1330 irreducible k-points:

 Following reciprocal coordinates:
            Coordinates               Weight
  0.000000  0.000000  0.000000      1.000000
  0.027778  0.000000  0.000000      6.000000
  0.055556  0.000000  0.000000      6.000000
  0.083333  0.000000  0.000000      6.000000
  0.111111  0.000000  0.000000      6.000000
  0.138889  0.000000  0.000000      6.000000
  0.166667  0.000000  0.000000      6.000000
  0.194444  0.000000  0.000000      6.000000
  0.222222  0.000000  0.000000      6.000000
  0.250000  0.000000  0.000000      6.000000
  0.277778  0.000000  0.000000      6.000000
  0.305556  0.000000  0.000000      6.000000
  0.333333  0.000000  0.000000      6.000000
  0.361111  0.000000  0.000000      6.000000
  0.388889  0.000000  0.000000      6.000000
  0.416667  0.000000  0.000000      6.000000
  0.444444  0.000000  0.000000      6.000000
  0.472222  0.000000  0.000000      6.000000
  0.500000  0.000000  0.000000      3.000000
  0.027778  0.027778  0.000000     12.000000
  0.055556  0.027778  0.000000     24.000000
  0.083333  0.027778  0.000000     24.000000
  0.111111  0.027778  0.000000     24.000000
  0.138889  0.027778  0.000000     24.000000
  0.166667  0.027778  0.000000     24.000000
  0.194444  0.027778  0.000000     24.000000
  0.222222  0.027778  0.000000     24.000000
  0.250000  0.027778  0.000000     24.000000
  0.277778  0.027778  0.000000     24.000000
  0.305556  0.027778  0.000000     24.000000
  0.333333  0.027778  0.000000     24.000000
  0.361111  0.027778  0.000000     24.000000
  0.388889  0.027778  0.000000     24.000000
  0.416667  0.027778  0.000000     24.000000
  0.444444  0.027778  0.000000     24.000000
  0.472222  0.027778  0.000000     24.000000
  0.500000  0.027778  0.000000     12.000000
  0.055556  0.055556  0.000000     12.000000
  0.083333  0.055556  0.000000     24.000000
  0.111111  0.055556  0.000000     24.000000
  0.138889  0.055556  0.000000     24.000000
  0.166667  0.055556  0.000000     24.000000
  0.194444  0.055556  0.000000     24.000000
  0.222222  0.055556  0.000000     24.000000
  0.250000  0.055556  0.000000     24.000000
  0.277778  0.055556  0.000000     24.000000
  0.305556  0.055556  0.000000     24.000000
  0.333333  0.055556  0.000000     24.000000
  0.361111  0.055556  0.000000     24.000000
  0.388889  0.055556  0.000000     24.000000
  0.416667  0.055556  0.000000     24.000000
  0.444444  0.055556  0.000000     24.000000
  0.472222  0.055556  0.000000     24.000000
  0.500000  0.055556  0.000000     12.000000
  0.083333  0.083333  0.000000     12.000000
  0.111111  0.083333  0.000000     24.000000
  0.138889  0.083333  0.000000     24.000000
  0.166667  0.083333  0.000000     24.000000
  0.194444  0.083333  0.000000     24.000000
  0.222222  0.083333  0.000000     24.000000
[...]
  0.472222  0.444444  0.416667     48.000000
  0.500000  0.444444  0.416667     24.000000
  0.472222  0.472222  0.416667     24.000000
  0.500000  0.472222  0.416667     24.000000
  0.500000  0.500000  0.416667      6.000000
  0.444444  0.444444  0.444444      8.000000
  0.472222  0.444444  0.444444     24.000000
  0.500000  0.444444  0.444444     12.000000
  0.472222  0.472222  0.444444     24.000000
  0.500000  0.472222  0.444444     24.000000
  0.500000  0.500000  0.444444      6.000000
  0.472222  0.472222  0.472222      8.000000
  0.500000  0.472222  0.472222     12.000000
  0.500000  0.500000  0.472222      6.000000
  0.500000  0.500000  0.500000      1.000000

 Following cartesian coordinates:
            Coordinates               Weight
  0.000000  0.000000  0.000000      1.000000
  0.007638  0.000000  0.000000      6.000000
  0.015276  0.000000  0.000000      6.000000
  0.022914  0.000000  0.000000      6.000000
  0.030552  0.000000  0.000000      6.000000
  0.038190  0.000000  0.000000      6.000000
  0.045828  0.000000  0.000000      6.000000
  0.053465  0.000000  0.000000      6.000000
  0.061103  0.000000  0.000000      6.000000
  0.068741  0.000000  0.000000      6.000000
  0.076379  0.000000  0.000000      6.000000
  0.084017  0.000000  0.000000      6.000000
  0.091655  0.000000  0.000000      6.000000
  0.099293  0.000000  0.000000      6.000000
  0.106931  0.000000  0.000000      6.000000
  0.114569  0.000000  0.000000      6.000000
  0.122207  0.000000  0.000000      6.000000
  0.129845  0.000000  0.000000      6.000000
  0.137483  0.000000  0.000000      3.000000
  0.007638  0.007638  0.000000     12.000000
  0.015276  0.007638  0.000000     24.000000
  0.022914  0.007638  0.000000     24.000000
  0.030552  0.007638  0.000000     24.000000
  0.038190  0.007638  0.000000     24.000000
  0.045828  0.007638  0.000000     24.000000
  0.053465  0.007638  0.000000     24.000000
  0.061103  0.007638  0.000000     24.000000
  0.068741  0.007638  0.000000     24.000000
  0.076379  0.007638  0.000000     24.000000
  0.084017  0.007638  0.000000     24.000000
  0.091655  0.007638  0.000000     24.000000
  0.099293  0.007638  0.000000     24.000000
  0.106931  0.007638  0.000000     24.000000
  0.114569  0.007638  0.000000     24.000000
  0.122207  0.007638  0.000000     24.000000
  0.129845  0.007638  0.000000     24.000000
  0.137483  0.007638  0.000000     12.000000
  0.015276  0.015276  0.000000     12.000000
  0.022914  0.015276  0.000000     24.000000
  0.030552  0.015276  0.000000     24.000000
  0.038190  0.015276  0.000000     24.000000
  0.045828  0.015276  0.000000     24.000000
  0.053465  0.015276  0.000000     24.000000
  0.061103  0.015276  0.000000     24.000000
  0.068741  0.015276  0.000000     24.000000
  0.076379  0.015276  0.000000     24.000000
  0.084017  0.015276  0.000000     24.000000
  0.091655  0.015276  0.000000     24.000000
  0.099293  0.015276  0.000000     24.000000
  0.106931  0.015276  0.000000     24.000000
  0.114569  0.015276  0.000000     24.000000
  0.122207  0.015276  0.000000     24.000000
  0.129845  0.015276  0.000000     24.000000
  0.137483  0.015276  0.000000     12.000000
  0.022914  0.022914  0.000000     12.000000
  0.030552  0.022914  0.000000     24.000000
  0.038190  0.022914  0.000000     24.000000
  0.045828  0.022914  0.000000     24.000000
  0.053465  0.022914  0.000000     24.000000
  0.061103  0.022914  0.000000     24.000000
[...]
  0.129845  0.122207  0.114569     48.000000
  0.137483  0.122207  0.114569     24.000000
  0.129845  0.129845  0.114569     24.000000
  0.137483  0.129845  0.114569     24.000000
  0.137483  0.137483  0.114569      6.000000
  0.122207  0.122207  0.122207      8.000000
  0.129845  0.122207  0.122207     24.000000
  0.137483  0.122207  0.122207     12.000000
  0.129845  0.129845  0.122207     24.000000
  0.137483  0.129845  0.122207     24.000000
  0.137483  0.137483  0.122207      6.000000
  0.129845  0.129845  0.129845      8.000000
  0.137483  0.129845  0.129845     12.000000
  0.137483  0.137483  0.129845      6.000000
  0.137483  0.137483  0.137483      1.000000

 I would recommend the setting:
   dimension x,y,z NGX =    38 NGY =   38 NGZ =   38
 SYSTEM =  unknown system
 POSCAR =  Cu

 Startparameter for this run:
   NWRITE =      2    write-flag & timer
   PREC   = accura    medium, high low
   ISTART =      0    job   : 0-new  1-cont  2-samecut
   ICHARG =      2    charge: 1-file 2-atom 10-const
   ISPIN  =      1    spin polarized calculation?
   LNONCOLLINEAR =      F non collinear calculations
   LSORBIT =      F    spin-orbit coupling
   INIWAV =      1    electr: 0-lowe 1-rand  2-diag
   LASPH  =      F    aspherical Exc in radial PAW
   METAGGA=      F    non-selfconsistent MetaGGA calc.

 Electronic Relaxation 1
   ENCUT  = 1000.0 eV  73.50 Ry    8.57 a.u.   9.56  9.56  9.56*2*pi/ulx,y,z
   ENINI  = 1000.0     initial cutoff
   ENAUG  =  516.5 eV  augmentation charge cutoff
   NELM   =     60;   NELMIN=  2; NELMDL=  0     # of ELM steps
   EDIFF  = 0.1E-07   stopping-criterion for ELM
   LREAL  =      F    real-space projection
   LCOMPAT=      F    compatible to vasp.4.4
   LREAL_COMPAT= F    compatible to vasp.4.5.1-3
   GGA_COMPAT  = T    GGA compatible to vasp.4.4-vasp.4.6
   LMAXPAW     = -100 max onsite density
   LMAXMIX     =    2 max onsite mixed and CHGCAR
[...]
 k-point 21 :  0.05560.02780.0000  plane waves:   3731
 k-point 22 :  0.08330.02780.0000  plane waves:   3726
 k-point 23 :  0.11110.02780.0000  plane waves:   3715
 k-point 24 :  0.13890.02780.0000  plane waves:   3710
 k-point 25 :  0.16670.02780.0000  plane waves:   3697
 k-point 26 :  0.19440.02780.0000  plane waves:   3688
 k-point 27 :  0.22220.02780.0000  plane waves:   3685
 k-point 28 :  0.25000.02780.0000  plane waves:   3679
 k-point 29 :  0.27780.02780.0000  plane waves:   3677
 k-point 30 :  0.30560.02780.0000  plane waves:   3669
 k-point 31 :  0.33330.02780.0000  plane waves:   3663
 k-point 32 :  0.36110.02780.0000  plane waves:   3659
 k-point 33 :  0.38890.02780.0000  plane waves:   3663
 k-point 34 :  0.41670.02780.0000  plane waves:   3661
 k-point 35 :  0.44440.02780.0000  plane waves:   3661
 k-point 36 :  0.47220.02780.0000  plane waves:   3639
 k-point 37 :  0.50000.02780.0000  plane waves:   3638
 k-point 38 :  0.05560.05560.0000  plane waves:   3727
 k-point 39 :  0.08330.05560.0000  plane waves:   3715
 k-point 40 :  0.11110.05560.0000  plane waves:   3708
 k-point 41 :  0.13890.05560.0000  plane waves:   3701
 k-point 42 :  0.16670.05560.0000  plane waves:   3698
 k-point 43 :  0.19440.05560.0000  plane waves:   3691
 k-point 44 :  0.22220.05560.0000  plane waves:   3685
 k-point 45 :  0.25000.05560.0000  plane waves:   3677
 k-point 46 :  0.27780.05560.0000  plane waves:   3673
 k-point 47 :  0.30560.05560.0000  plane waves:   3676
 k-point 48 :  0.33330.05560.0000  plane waves:   3673
 k-point 49 :  0.36110.05560.0000  plane waves:   3661
 k-point 50 :  0.38890.05560.0000  plane waves:   3655
 k-point 51 :  0.41670.05560.0000  plane waves:   3656
 k-point 52 :  0.44440.05560.0000  plane waves:   3658
 k-point 53 :  0.47220.05560.0000  plane waves:   3645
 k-point 54 :  0.50000.05560.0000  plane waves:   3650
 k-point 55 :  0.08330.08330.0000  plane waves:   3705
 k-point 56 :  0.11110.08330.0000  plane waves:   3697
 k-point 57 :  0.13890.08330.0000  plane waves:   3698
 k-point 58 :  0.16670.08330.0000  plane waves:   3688
 k-point 59 :  0.19440.08330.0000  plane waves:   3692
 k-point 60 :  0.22220.08330.0000  plane waves:   3687
[...]
 k-point 85 :  0.50000.11110.0000  plane waves:   3666
 k-point 86 :  0.13890.13890.0000  plane waves:   3693
 k-point 87 :  0.16670.13890.0000  plane waves:   3687
 k-point 88 :  0.19440.13890.0000  plane waves:   3684
 k-point 89 :  0.22220.13890.0000  plane waves:   3676
 k-point 90 :  0.25000.13890.0000  plane waves:   3672
 k-point 91 :  0.27780.13890.0000  plane waves:   3666
 k-point 92 :  0.30560.13890.0000  plane waves:   3664
 k-point 93 :  0.33330.13890.0000  plane waves:   3665
 k-point 94 :  0.36110.13890.0000  plane waves:   3667
 k-point 95 :  0.38890.13890.0000  plane waves:   3666
 k-point 96 :  0.41670.13890.0000  plane waves:   3663
 k-point 97 :  0.44440.13890.0000  plane waves:   3659
 k-point 98 :  0.47220.13890.0000  plane waves:   3658
 k-point 99 :  0.50000.13890.0000  plane waves:   3660
 k-point ** :  0.16670.16670.0000  plane waves:   3687
 k-point ** :  0.19440.16670.0000  plane waves:   3675
 k-point ** :  0.22220.16670.0000  plane waves:   3673
 k-point ** :  0.25000.16670.0000  plane waves:   3670
 k-point ** :  0.27780.16670.0000  plane waves:   3662
 k-point ** :  0.30560.16670.0000  plane waves:   3666
 k-point ** :  0.33330.16670.0000  plane waves:   3672
 k-point ** :  0.36110.16670.0000  plane waves:   3667
 k-point ** :  0.38890.16670.0000  plane waves:   3662
 k-point ** :  0.41670.16670.0000  plane waves:   3655
 k-point ** :  0.44440.16670.0000  plane waves:   3663
 k-point ** :  0.47220.16670.0000  plane waves:   3664
 k-point ** :  0.50000.16670.0000  plane waves:   3668
 k-point ** :  0.19440.19440.0000  plane waves:   3679
 k-point ** :  0.22220.19440.0000  plane waves:   3677
 k-point ** :  0.25000.19440.0000  plane waves:   3664
 k-point ** :  0.27780.19440.0000  plane waves:   3662
 k-point ** :  0.30560.19440.0000  plane waves:   3663
 k-point ** :  0.33330.19440.0000  plane waves:   3670
 k-point ** :  0.36110.19440.0000  plane waves:   3666
 k-point ** :  0.38890.19440.0000  plane waves:   3669
 k-point ** :  0.41670.19440.0000  plane waves:   3666
 k-point ** :  0.44440.19440.0000  plane waves:   3659
 k-point ** :  0.47220.19440.0000  plane waves:   3663
 k-point ** :  0.50000.19440.0000  plane waves:   3666
 k-point ** :  0.22220.22220.0000  plane waves:   3681
 k-point ** :  0.25000.22220.0000  plane waves:   3669
 k-point ** :  0.27780.22220.0000  plane waves:   3662
 k-point ** :  0.30560.22220.0000  plane waves:   3668
 k-point ** :  0.33330.22220.0000  plane waves:   3662
 k-point ** :  0.36110.22220.0000  plane waves:   3662
 k-point ** :  0.38890.22220.0000  plane waves:   3667
 k-point ** :  0.41670.22220.0000  plane waves:   3666
 k-point ** :  0.44440.22220.0000  plane waves:   3665
 k-point ** :  0.47220.22220.0000  plane waves:   3655
 k-point ** :  0.50000.22220.0000  plane waves:   3654
 k-point ** :  0.25000.25000.0000  plane waves:   3650
 k-point ** :  0.27780.25000.0000  plane waves:   3668
 k-point ** :  0.30560.25000.0000  plane waves:   3668
 k-point ** :  0.33330.25000.0000  plane waves:   3664
 k-point ** :  0.36110.25000.0000  plane waves:   3667
 k-point ** :  0.38890.25000.0000  plane waves:   3665
 k-point ** :  0.41670.25000.0000  plane waves:   3659
 k-point ** :  0.44440.25000.0000  plane waves:   3662
 k-point ** :  0.47220.25000.0000  plane waves:   3655
 k-point ** :  0.50000.25000.0000  plane waves:   3656
 k-point ** :  0.27780.27780.0000  plane waves:   3662
 k-point ** :  0.30560.27780.0000  plane waves:   3657
 k-point ** :  0.33330.27780.0000  plane waves:   3663
 k-point ** :  0.36110.27780.0000  plane waves:   3663
 k-point ** :  0.38890.27780.0000  plane waves:   3665
 k-point ** :  0.41670.27780.0000  plane waves:   3662
 k-point ** :  0.44440.27780.0000  plane waves:   3663
 k-point ** :  0.47220.27780.0000  plane waves:   3665
 k-point ** :  0.50000.27780.0000  plane waves:   3664
 k-point ** :  0.30560.30560.0000  plane waves:   3660
 k-point ** :  0.33330.30560.0000  plane waves:   3666
 k-point ** :  0.36110.30560.0000  plane waves:   3663
 k-point ** :  0.38890.30560.0000  plane waves:   3665
 k-point ** :  0.41670.30560.0000  plane waves:   3666
[...]
 k-point ** :  0.47220.44440.4167  plane waves:   3652
 k-point ** :  0.50000.44440.4167  plane waves:   3650
 k-point ** :  0.47220.47220.4167  plane waves:   3644
 k-point ** :  0.50000.47220.4167  plane waves:   3648
 k-point ** :  0.50000.50000.4167  plane waves:   3640
 k-point ** :  0.44440.44440.4444  plane waves:   3641
 k-point ** :  0.47220.44440.4444  plane waves:   3638
 k-point ** :  0.50000.44440.4444  plane waves:   3636
 k-point ** :  0.47220.47220.4444  plane waves:   3632
 k-point ** :  0.50000.47220.4444  plane waves:   3626
 k-point ** :  0.50000.50000.4444  plane waves:   3636
 k-point ** :  0.47220.47220.4722  plane waves:   3638
 k-point ** :  0.50000.47220.4722  plane waves:   3648
 k-point ** :  0.50000.50000.4722  plane waves:   3648
 k-point ** :  0.50000.50000.5000  plane waves:   3648

 maximum and minimum number of plane-waves per node :   3743  3626

 maximum number of plane-waves:   3743
 maximal index in each direction:
   IXMAX=  9   IYMAX=  9   IZMAX=  9
   IXMIN=-10   IYMIN=-10   IZMIN=-10

 NGX is ok and might be reduce to  40
 NGY is ok and might be reduce to  40
 NGZ is ok and might be reduce to  40

 parallel 3dFFT wavefunction:
    minimum data exchange during FFTs selected (reduces bandwidth)
 parallel 3dFFT charge:
    minimum data exchange during FFTs selected (reduces bandwidth)

Broyden mixing: mesh for mixing (old mesh)
   NGX = 19   NGY = 19   NGZ = 19
  (NGX  = 80   NGY  = 80   NGZ  = 80)
 gives a total of   6859 points
 initial charge density was supplied:
 charge density of overlapping atoms calculated
 number of electron   44.0000000 magnetization
 keeping initial charge density in first step

 Maximum index for augmentation-charges        42871 (set IRDMAX)

 First call to EWALD:  gamma=   0.478
 Maximum number of real-space cells 3x 3x 3
 Maximum number of reciprocal cells 3x 3x 3

----------------------------------------- Iteration    1(   1)  ---------------------------------------

 eigenvalue-minimisations  : 87240
 total energy-change (2. order) : 0.3589629E+03  (-0.3109419E+04)
 number of electron   44.0000000 magnetization
 augmentation part    44.0000000 magnetization

 Free energy of the ion-electron system (eV)
  alpha Z        PSCENC =       400.45705121
  Ewald energy   TEWEN  =     -4307.00361300
  -1/2 Hartree   DENC   =     -1364.83105811
  -V(xc)+E(xc)   XCENC  =       174.77263306
  PAW double counting   =      4328.20916945    -4904.30802700
  entropy T*S    EENTRO =        -0.00006374
  eigenvalues    EBANDS =       467.74755693
  atomic energy  EATOM  =      5563.91924406
  free energy    TOTEN  =       358.96289284 eV

  energy without entropy =      358.96295658  energy(sigma->0) =      358.96292471

[...]

 eigenvalue-minimisations  : 85248
 total energy-change (2. order) :-0.3489446E+03  (-0.3316606E+03)
 number of electron   44.0000000 magnetization
 augmentation part    44.0000000 magnetization

[...]

 Broyden mixing:
  rms(total) = 0.13753E+01    rms(broyden)= 0.13753E+01
  rms(prec ) = 0.32710E+01
  weight for this iteration     100.00

[...]

 eigenvalues of (default mixing * dielectric matrix)
  average eigenvalue GAMMA=   0.6650
  0.6650

[...]

 eigenvalue-minimisations  : 77832
 total energy-change (2. order) :-0.3788482E-06  (-0.2064128E-08)
 number of electron   44.0000002 magnetization
 augmentation part    28.8267380 magnetization

 Broyden mixing:
  rms(total) = 0.24296E-04    rms(broyden)= 0.24296E-04
  rms(prec ) = 0.58999E-04
  weight for this iteration     100.00

 eigenvalues of (default mixing * dielectric matrix)
  average eigenvalue GAMMA=   1.5999
  2.6386  2.6386  2.5407  0.6649  1.3725  0.9612  0.9912  0.9912

[...]

----------------------------------------- Iteration    1(  14)  ---------------------------------------

 eigenvalue-minimisations  : 55248
 total energy-change (2. order) : 0.9167707E-09  (-0.2612159E-09)
 number of electron   44.0000002 magnetization
 augmentation part    28.8267380 magnetization

 Free energy of the ion-electron system (eV)
  alpha Z        PSCENC =       400.45705121
  Ewald energy   TEWEN  =     -4307.00361300
  -1/2 Hartree   DENC   =     -1279.19576302
  -V(xc)+E(xc)   XCENC  =       170.60640116
  PAW double counting   =      4351.19781709    -4928.93962655
  entropy T*S    EENTRO =        -0.00007150
  eigenvalues    EBANDS =        14.15472568
  atomic energy  EATOM  =      5563.91924406
  free energy    TOTEN  =       -14.80383487 eV

  energy without entropy =      -14.80376337  energy(sigma->0) =      -14.80379912

 average (electrostatic) potential at core
  the test charge radii are     1.0053
  (the norm of the test charge is              1.0000)
       1 -40.3982       2 -40.3982       3 -40.3982       4 -40.3982

 E-fermi :   3.1616     XC(G=0): -12.3527     alpha+bet : -8.9128
   add alpha+bet to get absolut eigen values

 k-point   1 :       0.0000    0.0000    0.0000
  band No.  band energies     occupation
      1      -5.6212      2.00000
      2      -1.3078      2.00000
      3      -1.3078      2.00000
      4      -1.3078      2.00000
      5      -0.9035      2.00000
      6      -0.9035      2.00000
      7      -0.9035      2.00000
      8       0.3287      2.00000
      9       0.3287      2.00000
     10       0.3287      2.00000
     11       1.0626      2.00000
     12       1.0626      2.00000
     13       1.5507      2.00000
     14       1.5507      2.00000
     15       1.5507      2.00000
     16       1.6874      2.00000
     17       1.6874      2.00000
     18       1.6874      2.00000
     19       1.6874      2.00000
     20       1.6874      2.00000
     21       1.6874      2.00000
     22       4.7208      0.00000
     23       4.7208      0.00000
     24       4.7208      0.00000
     25       9.7439      0.00000
     26       9.7439      0.00000
     27       9.7439      0.00000
     28      15.7196      0.00000
     29      15.7196      0.00000
     30      15.7196      0.00000
     31      15.7196      0.00000
     32      15.7196      0.00000

[...]

 k-point *** :       0.5000    0.5000    0.5000
  band No.  band energies     occupation
      1      -1.5221      2.00000
      2      -1.5221      2.00000
      3      -1.5221      2.00000
      4      -1.5221      2.00000
      5       0.3046      2.00000
      6       0.3046      2.00000
      7       0.3046      2.00000
      8       0.3046      2.00000
      9       0.3046      2.00000
     10       0.3046      2.00000
     11       0.3046      2.00000
     12       0.3046      2.00000
     13       1.5634      2.00000
     14       1.5634      2.00000
     15       1.5634      2.00000
     16       1.5634      2.00000
     17       1.5634      2.00000
     18       1.5634      2.00000
     19       1.5634      2.00000
     20       1.5634      2.00000
     21       2.3776      2.00000
     22       2.3776      2.00000
     23       2.3776      2.00000
     24       2.3776      2.00000
     25       6.5303      0.00000
     26       6.5303      0.00000
     27       6.5303      0.00000
     28       6.5303      0.00000
     29      23.9709      0.00000
     30      23.9709      0.00000
     31      23.9709      0.00000
     32      23.9709      0.00000

 soft charge-density along one line, spin component           1
         0         1         2         3         4         5         6         7         8         9
 total charge-density along one line

------------------------ aborting loop because EDIFF is reached ----------------------------------------

  FREE ENERGIE OF THE ION-ELECTRON SYSTEM (eV)
  free  energy   TOTEN  =       -14.803835 eV

  energy  without entropy=      -14.803763  energy(sigma->0) =      -14.803799

  FORCE on cell =-STRESS in cart. coord.  units (eV/reduce length):
  Direction    X        Y        Z        XY       YZ       ZX
  Alpha Z    400.46    400.46    400.46
  Ewald    -1435.67  -1435.67  -1435.67      0.00     -0.00      0.00
  Hartree    426.40    426.40    426.40     -0.00     -0.00     -0.00
  E(xc)     -250.11   -250.11   -250.11      0.00     -0.00     -0.00
  Local      467.03    467.03    467.03     -0.00     -0.00     -0.00
  n-local   -144.59   -150.45   -151.55      0.32      1.86      0.66
  augment    225.76    225.76    225.76     -0.00     -0.00     -0.00
  Kinetic    320.39    311.76    306.13     -3.08      0.08     -1.33
  Total       -2.23     -2.23     -2.23     -0.00      0.00     -0.00
  in kB      -70.14    -70.14    -70.14     -0.00      0.00     -0.00

 VOLUME and BASIS-vectors are now :
  energy-cutoff  :     1000.00
  volume of cell :       51.05
      direct lattice vectors                 reciprocal lattice vectors
     3.709560710  0.000000000  0.000000000     0.269573698  0.000000000  0.000000000
     0.000000000  3.709560710  0.000000000     0.000000000  0.269573698  0.000000000
     0.000000000  0.000000000  3.709560710     0.000000000  0.000000000  0.269573698

  length of vectors
     3.709560710  3.709560710  3.709560710     0.269573698  0.269573698  0.269573698

 FORCES acting on ions
    electron-ion (+dipol)            ewald-force                    non-local-force                 convergence-correction
   0.185E-13 0.500E-14 0.215E-15   -.167E-14 -.199E-13 0.247E-14   -.137E-25 0.377E-26 0.144E-25   -.109E-12 -.109E-12 -.131E-12
   -.134E-12 -.856E-12 -.422E-11   0.808E-14 -.548E-14 0.238E-14   -.135E-25 -.439E-26 -.116E-25   0.430E-13 0.620E-13 -.121E-12
   -.132E-12 0.678E-14 -.489E-11   0.113E-14 0.695E-14 -.394E-14   0.267E-27 -.862E-26 0.101E-25   0.437E-13 -.104E-12 0.668E-13
   0.185E-13 -.144E-12 -.151E-12   -.105E-13 0.213E-13 -.403E-14   -.123E-25 0.203E-25 0.809E-26   -.112E-12 0.650E-13 0.616E-13
   -.229E-12 -.988E-12 -.927E-11   -.297E-14 0.293E-14 -.312E-14   -.392E-25 0.110E-25 0.209E-25   -.134E-12 -.856E-13 -.124E-12

 POSITION                                       TOTAL-FORCE (eV/Angst)
      0.00000      0.00000      0.00000        -0.000000      0.000000     -0.000000
      1.85478      1.85478      0.00000        -0.000000      0.000000     -0.000000
      1.85478      0.00000      1.85478        -0.000000     -0.000000      0.000000
      0.00000      1.85478      1.85478        -0.000000     -0.000000     -0.000000
    total drift:                               -0.000000     -0.000000     -0.000000

 mean value of Nose-termostat <S>:     1.000 mean value of <T> :     0.000
 mean temperature <T/S>/<1/S>  :     0.000