 vasp.4.6.28 25Jul05 complex
 executed on             LinuxIFC date 2017.01.14  05:41:49

 INCAR:
 POTCAR:   PAW_PBE Au 06Sep2000
 POTCAR:   PAW_PBE Au 06Sep2000
   VRHFIN =Au: s1d10

   TITEL  = PAW_PBE Au 06Sep2000
   POMASS =  196.966; ZVAL   =   11.000    mass and valenz
   ENMAX  =  229.948; ENMIN  =  172.461 eV
   QCUT   =   -4.111; QGAM   =    8.222    optimization parameters

   Description
     l     E      TYP  RCUT    TYP  RCUT
     2   .000     23  2.500
     2   .000     23  2.500
     0   .000     23  2.500
     0   .000     23  2.500
     1  -.200     23  2.500
     1   .000     23  2.500
     3   .000      7   .000

 WARNING: PSMAXN for non-local potential too small
          PSMAXN should be >   16.2007969712021       NTYP=           1
 PAW_PBE Au 06Sep2000                   :

 POSCAR: Au
  positions in direct lattice
  velocities in cartesian coordinates

 ion  position               nearest neighbor table
   1  0.000  0.000  0.000-   2 2.86   3 2.86   4 2.86   3 2.86   4 2.86   2 2.86   4 2.86   4 2.86
                             2 2.86   3 2.86   3 2.86   2 2.86
   2  0.500  0.500  0.000-   1 2.86   3 2.86   4 2.86   3 2.86   4 2.86   1 2.86   3 2.86   3 2.86
                             1 2.86   4 2.86   4 2.86   1 2.86
   3  0.500  0.000  0.500-   1 2.86   2 2.86   4 2.86   1 2.86   2 2.86   2 2.86   4 2.86   2 2.86
                             1 2.86   4 2.86   1 2.86   4 2.86
   4  0.000  0.500  0.500-   1 2.86   2 2.86   3 2.86   1 2.86   2 2.86   1 2.86   3 2.86   1 2.86
                             2 2.86   3 2.86   2 2.86   3 2.86

  LATTYP: Found a simple cubic cell.
 ALAT       =     4.0482575956

  Lattice vectors:

 A1 = (   4.0482575956,   0.0000000000,   0.0000000000)
 A2 = (   0.0000000000,   4.0482575956,   0.0000000000)
 A3 = (   0.0000000000,   0.0000000000,   4.0482575956)
 Subroutine PRICEL returns following result:

  LATTYP: Found a face centered cubic cell.
 ALAT       =     4.0482575956

  Lattice vectors:

 A1 = (   2.0241287978,   2.0241287978,   0.0000000000)
 A2 = (   2.0241287978,   0.0000000000,  -2.0241287978)
 A3 = (   0.0000000000,   2.0241287978,  -2.0241287978)

   4 primitive cells build up your supercell.

Analysis of symmetry for initial positions (statically):

 Routine SETGRP: Setting up the symmetry group for a
 simple cubic supercell.

 Subroutine GETGRP returns: Found 48 space group operations
 (whereof 48 operations were pure point group operations)
 out of a pool of 48 trial point group operations.

The static configuration has the point symmetry O_h .

Analysis of symmetry for dynamics (positions and initial velocities):

 Subroutine DYNSYM returns: Found 48 space group operations
 (whereof 48 operations were pure point group operations)
 out of a pool of 48 trial space group operations
 (whereof 48 operations were pure point group operations)
 and found also     4 'primitive' translations

The dynamic configuration has the point symmetry O_h .

 KPOINTS: Automatic mesh

Automatic generation of k-mesh.

 Subroutine IBZKPT returns following result:

 Found   1330 irreducible k-points:

 Following reciprocal coordinates:
            Coordinates               Weight
  0.000000  0.000000  0.000000      1.000000
  0.027778  0.000000  0.000000      6.000000
  0.055556  0.000000  0.000000      6.000000
  0.083333  0.000000  0.000000      6.000000
  0.111111  0.000000  0.000000      6.000000
  0.138889  0.000000  0.000000      6.000000
  0.166667  0.000000  0.000000      6.000000
  0.194444  0.000000  0.000000      6.000000
  0.222222  0.000000  0.000000      6.000000
  0.250000  0.000000  0.000000      6.000000
  0.277778  0.000000  0.000000      6.000000
  0.305556  0.000000  0.000000      6.000000
  0.333333  0.000000  0.000000      6.000000
  0.361111  0.000000  0.000000      6.000000
  0.388889  0.000000  0.000000      6.000000
  0.416667  0.000000  0.000000      6.000000
  0.444444  0.000000  0.000000      6.000000
  0.472222  0.000000  0.000000      6.000000
  0.500000  0.000000  0.000000      3.000000
  0.027778  0.027778  0.000000     12.000000
  0.055556  0.027778  0.000000     24.000000
  0.083333  0.027778  0.000000     24.000000
  0.111111  0.027778  0.000000     24.000000
  0.138889  0.027778  0.000000     24.000000
  0.166667  0.027778  0.000000     24.000000
  0.194444  0.027778  0.000000     24.000000
  0.222222  0.027778  0.000000     24.000000
  0.250000  0.027778  0.000000     24.000000
  0.277778  0.027778  0.000000     24.000000
  0.305556  0.027778  0.000000     24.000000
  0.333333  0.027778  0.000000     24.000000
  0.361111  0.027778  0.000000     24.000000
  0.388889  0.027778  0.000000     24.000000
  0.416667  0.027778  0.000000     24.000000
  0.444444  0.027778  0.000000     24.000000
  0.472222  0.027778  0.000000     24.000000
  0.500000  0.027778  0.000000     12.000000
  0.055556  0.055556  0.000000     12.000000
  0.083333  0.055556  0.000000     24.000000
  0.111111  0.055556  0.000000     24.000000
  0.138889  0.055556  0.000000     24.000000
  0.166667  0.055556  0.000000     24.000000
  0.194444  0.055556  0.000000     24.000000
  0.222222  0.055556  0.000000     24.000000
  0.250000  0.055556  0.000000     24.000000
  0.277778  0.055556  0.000000     24.000000
  0.305556  0.055556  0.000000     24.000000
  0.333333  0.055556  0.000000     24.000000
  0.361111  0.055556  0.000000     24.000000
  0.388889  0.055556  0.000000     24.000000
  0.416667  0.055556  0.000000     24.000000
  0.444444  0.055556  0.000000     24.000000
  0.472222  0.055556  0.000000     24.000000
  0.500000  0.055556  0.000000     12.000000
  0.083333  0.083333  0.000000     12.000000
  0.111111  0.083333  0.000000     24.000000
  0.138889  0.083333  0.000000     24.000000
  0.166667  0.083333  0.000000     24.000000
  0.194444  0.083333  0.000000     24.000000
  0.222222  0.083333  0.000000     24.000000
[...]
  0.472222  0.444444  0.416667     48.000000
  0.500000  0.444444  0.416667     24.000000
  0.472222  0.472222  0.416667     24.000000
  0.500000  0.472222  0.416667     24.000000
  0.500000  0.500000  0.416667      6.000000
  0.444444  0.444444  0.444444      8.000000
  0.472222  0.444444  0.444444     24.000000
  0.500000  0.444444  0.444444     12.000000
  0.472222  0.472222  0.444444     24.000000
  0.500000  0.472222  0.444444     24.000000
  0.500000  0.500000  0.444444      6.000000
  0.472222  0.472222  0.472222      8.000000
  0.500000  0.472222  0.472222     12.000000
  0.500000  0.500000  0.472222      6.000000
  0.500000  0.500000  0.500000      1.000000

 Following cartesian coordinates:
            Coordinates               Weight
  0.000000  0.000000  0.000000      1.000000
  0.006656  0.000000  0.000000      6.000000
  0.013312  0.000000  0.000000      6.000000
  0.019967  0.000000  0.000000      6.000000
  0.026623  0.000000  0.000000      6.000000
  0.033279  0.000000  0.000000      6.000000
  0.039935  0.000000  0.000000      6.000000
  0.046591  0.000000  0.000000      6.000000
  0.053247  0.000000  0.000000      6.000000
  0.059902  0.000000  0.000000      6.000000
  0.066558  0.000000  0.000000      6.000000
  0.073214  0.000000  0.000000      6.000000
  0.079870  0.000000  0.000000      6.000000
  0.086526  0.000000  0.000000      6.000000
  0.093181  0.000000  0.000000      6.000000
  0.099837  0.000000  0.000000      6.000000
  0.106493  0.000000  0.000000      6.000000
  0.113149  0.000000  0.000000      6.000000
  0.119805  0.000000  0.000000      3.000000
  0.006656  0.006656  0.000000     12.000000
  0.013312  0.006656  0.000000     24.000000
  0.019967  0.006656  0.000000     24.000000
  0.026623  0.006656  0.000000     24.000000
  0.033279  0.006656  0.000000     24.000000
  0.039935  0.006656  0.000000     24.000000
  0.046591  0.006656  0.000000     24.000000
  0.053247  0.006656  0.000000     24.000000
  0.059902  0.006656  0.000000     24.000000
  0.066558  0.006656  0.000000     24.000000
  0.073214  0.006656  0.000000     24.000000
  0.079870  0.006656  0.000000     24.000000
  0.086526  0.006656  0.000000     24.000000
  0.093181  0.006656  0.000000     24.000000
  0.099837  0.006656  0.000000     24.000000
  0.106493  0.006656  0.000000     24.000000
  0.113149  0.006656  0.000000     24.000000
  0.119805  0.006656  0.000000     12.000000
  0.013312  0.013312  0.000000     12.000000
  0.019967  0.013312  0.000000     24.000000
  0.026623  0.013312  0.000000     24.000000
  0.033279  0.013312  0.000000     24.000000
  0.039935  0.013312  0.000000     24.000000
  0.046591  0.013312  0.000000     24.000000
  0.053247  0.013312  0.000000     24.000000
  0.059902  0.013312  0.000000     24.000000
  0.066558  0.013312  0.000000     24.000000
  0.073214  0.013312  0.000000     24.000000
  0.079870  0.013312  0.000000     24.000000
  0.086526  0.013312  0.000000     24.000000
  0.093181  0.013312  0.000000     24.000000
  0.099837  0.013312  0.000000     24.000000
  0.106493  0.013312  0.000000     24.000000
  0.113149  0.013312  0.000000     24.000000
  0.119805  0.013312  0.000000     12.000000
  0.019967  0.019967  0.000000     12.000000
  0.026623  0.019967  0.000000     24.000000
  0.033279  0.019967  0.000000     24.000000
  0.039935  0.019967  0.000000     24.000000
  0.046591  0.019967  0.000000     24.000000
  0.053247  0.019967  0.000000     24.000000
[...]
  0.113149  0.106493  0.099837     48.000000
  0.119805  0.106493  0.099837     24.000000
  0.113149  0.113149  0.099837     24.000000
  0.119805  0.113149  0.099837     24.000000
  0.119805  0.119805  0.099837      6.000000
  0.106493  0.106493  0.106493      8.000000
  0.113149  0.106493  0.106493     24.000000
  0.119805  0.106493  0.106493     12.000000
  0.113149  0.113149  0.106493     24.000000
  0.119805  0.113149  0.106493     24.000000
  0.119805  0.119805  0.106493      6.000000
  0.113149  0.113149  0.113149      8.000000
  0.119805  0.113149  0.113149     12.000000
  0.119805  0.119805  0.113149      6.000000
  0.119805  0.119805  0.119805      1.000000

 I would recommend the setting:
   dimension x,y,z NGX =    42 NGY =   42 NGZ =   42
 SYSTEM =  unknown system
 POSCAR =  Au

 Startparameter for this run:
   NWRITE =      2    write-flag & timer
   PREC   = accura    medium, high low
   ISTART =      0    job   : 0-new  1-cont  2-samecut
   ICHARG =      2    charge: 1-file 2-atom 10-const
   ISPIN  =      1    spin polarized calculation?
   LNONCOLLINEAR =      F non collinear calculations
   LSORBIT =      F    spin-orbit coupling
   INIWAV =      1    electr: 0-lowe 1-rand  2-diag
   LASPH  =      F    aspherical Exc in radial PAW
   METAGGA=      F    non-selfconsistent MetaGGA calc.

 Electronic Relaxation 1
   ENCUT  = 1000.0 eV  73.50 Ry    8.57 a.u.  10.44 10.44 10.44*2*pi/ulx,y,z
   ENINI  = 1000.0     initial cutoff
   ENAUG  =  356.7 eV  augmentation charge cutoff
   NELM   =     60;   NELMIN=  2; NELMDL=  0     # of ELM steps
   EDIFF  = 0.1E-07   stopping-criterion for ELM
   LREAL  =      F    real-space projection
   LCOMPAT=      F    compatible to vasp.4.4
   LREAL_COMPAT= F    compatible to vasp.4.5.1-3
   GGA_COMPAT  = T    GGA compatible to vasp.4.4-vasp.4.6
[...]
 k-point 32 :  0.36110.02780.0000  plane waves:   4776
 k-point 33 :  0.38890.02780.0000  plane waves:   4776
 k-point 34 :  0.41670.02780.0000  plane waves:   4775
 k-point 35 :  0.44440.02780.0000  plane waves:   4765
 k-point 36 :  0.47220.02780.0000  plane waves:   4771
 k-point 37 :  0.50000.02780.0000  plane waves:   4768
 k-point 38 :  0.05560.05560.0000  plane waves:   4787
 k-point 39 :  0.08330.05560.0000  plane waves:   4791
 k-point 40 :  0.11110.05560.0000  plane waves:   4785
 k-point 41 :  0.13890.05560.0000  plane waves:   4784
 k-point 42 :  0.16670.05560.0000  plane waves:   4784
 k-point 43 :  0.19440.05560.0000  plane waves:   4773
 k-point 44 :  0.22220.05560.0000  plane waves:   4775
 k-point 45 :  0.25000.05560.0000  plane waves:   4771
 k-point 46 :  0.27780.05560.0000  plane waves:   4768
 k-point 47 :  0.30560.05560.0000  plane waves:   4766
 k-point 48 :  0.33330.05560.0000  plane waves:   4769
 k-point 49 :  0.36110.05560.0000  plane waves:   4768
 k-point 50 :  0.38890.05560.0000  plane waves:   4778
 k-point 51 :  0.41670.05560.0000  plane waves:   4775
 k-point 52 :  0.44440.05560.0000  plane waves:   4771
 k-point 53 :  0.47220.05560.0000  plane waves:   4771
 k-point 54 :  0.50000.05560.0000  plane waves:   4776
 k-point 55 :  0.08330.08330.0000  plane waves:   4793
 k-point 56 :  0.11110.08330.0000  plane waves:   4785
 k-point 57 :  0.13890.08330.0000  plane waves:   4780
 k-point 58 :  0.16670.08330.0000  plane waves:   4777
 k-point 59 :  0.19440.08330.0000  plane waves:   4776
 k-point 60 :  0.22220.08330.0000  plane waves:   4766
[...]
 k-point 85 :  0.50000.11110.0000  plane waves:   4778
 k-point 86 :  0.13890.13890.0000  plane waves:   4779
 k-point 87 :  0.16670.13890.0000  plane waves:   4777
 k-point 88 :  0.19440.13890.0000  plane waves:   4771
 k-point 89 :  0.22220.13890.0000  plane waves:   4760
 k-point 90 :  0.25000.13890.0000  plane waves:   4767
 k-point 91 :  0.27780.13890.0000  plane waves:   4758
 k-point 92 :  0.30560.13890.0000  plane waves:   4771
 k-point 93 :  0.33330.13890.0000  plane waves:   4763
 k-point 94 :  0.36110.13890.0000  plane waves:   4765
 k-point 95 :  0.38890.13890.0000  plane waves:   4772
 k-point 96 :  0.41670.13890.0000  plane waves:   4779
 k-point 97 :  0.44440.13890.0000  plane waves:   4781
 k-point 98 :  0.47220.13890.0000  plane waves:   4778
 k-point 99 :  0.50000.13890.0000  plane waves:   4770
 k-point ** :  0.16670.16670.0000  plane waves:   4767
 k-point ** :  0.19440.16670.0000  plane waves:   4769
 k-point ** :  0.22220.16670.0000  plane waves:   4762
 k-point ** :  0.25000.16670.0000  plane waves:   4766
 k-point ** :  0.27780.16670.0000  plane waves:   4760
 k-point ** :  0.30560.16670.0000  plane waves:   4767
 k-point ** :  0.33330.16670.0000  plane waves:   4765
 k-point ** :  0.36110.16670.0000  plane waves:   4770
 k-point ** :  0.38890.16670.0000  plane waves:   4770
 k-point ** :  0.41670.16670.0000  plane waves:   4776
 k-point ** :  0.44440.16670.0000  plane waves:   4776
 k-point ** :  0.47220.16670.0000  plane waves:   4764
 k-point ** :  0.50000.16670.0000  plane waves:   4780
 k-point ** :  0.19440.19440.0000  plane waves:   4773
 k-point ** :  0.22220.19440.0000  plane waves:   4766
 k-point ** :  0.25000.19440.0000  plane waves:   4753
 k-point ** :  0.27780.19440.0000  plane waves:   4764
 k-point ** :  0.30560.19440.0000  plane waves:   4766
 k-point ** :  0.33330.19440.0000  plane waves:   4775
 k-point ** :  0.36110.19440.0000  plane waves:   4773
 k-point ** :  0.38890.19440.0000  plane waves:   4766
 k-point ** :  0.41670.19440.0000  plane waves:   4773
 k-point ** :  0.44440.19440.0000  plane waves:   4769
 k-point ** :  0.47220.19440.0000  plane waves:   4770
 k-point ** :  0.50000.19440.0000  plane waves:   4778
 k-point ** :  0.22220.22220.0000  plane waves:   4767
 k-point ** :  0.25000.22220.0000  plane waves:   4757
 k-point ** :  0.27780.22220.0000  plane waves:   4766
 k-point ** :  0.30560.22220.0000  plane waves:   4770
 k-point ** :  0.33330.22220.0000  plane waves:   4775
 k-point ** :  0.36110.22220.0000  plane waves:   4771
 k-point ** :  0.38890.22220.0000  plane waves:   4767
 k-point ** :  0.41670.22220.0000  plane waves:   4770
 k-point ** :  0.44440.22220.0000  plane waves:   4772
 k-point ** :  0.47220.22220.0000  plane waves:   4772
 k-point ** :  0.50000.22220.0000  plane waves:   4770
 k-point ** :  0.25000.25000.0000  plane waves:   4741
 k-point ** :  0.27780.25000.0000  plane waves:   4759
 k-point ** :  0.30560.25000.0000  plane waves:   4776
 k-point ** :  0.33330.25000.0000  plane waves:   4767
 k-point ** :  0.36110.25000.0000  plane waves:   4768
 k-point ** :  0.38890.25000.0000  plane waves:   4767
 k-point ** :  0.41670.25000.0000  plane waves:   4767
 k-point ** :  0.44440.25000.0000  plane waves:   4768
 k-point ** :  0.47220.25000.0000  plane waves:   4769
 k-point ** :  0.50000.25000.0000  plane waves:   4770
 k-point ** :  0.27780.27780.0000  plane waves:   4769
 k-point ** :  0.30560.27780.0000  plane waves:   4772
 k-point ** :  0.33330.27780.0000  plane waves:   4765
 k-point ** :  0.36110.27780.0000  plane waves:   4768
 k-point ** :  0.38890.27780.0000  plane waves:   4764
 k-point ** :  0.41670.27780.0000  plane waves:   4755
 k-point ** :  0.44440.27780.0000  plane waves:   4766
 k-point ** :  0.47220.27780.0000  plane waves:   4764
 k-point ** :  0.50000.27780.0000  plane waves:   4756
 k-point ** :  0.30560.30560.0000  plane waves:   4763
 k-point ** :  0.33330.30560.0000  plane waves:   4764
 k-point ** :  0.36110.30560.0000  plane waves:   4770
 k-point ** :  0.38890.30560.0000  plane waves:   4762
 k-point ** :  0.41670.30560.0000  plane waves:   4761
[...]
 k-point ** :  0.47220.44440.4167  plane waves:   4740
 k-point ** :  0.50000.44440.4167  plane waves:   4744
 k-point ** :  0.47220.47220.4167  plane waves:   4741
 k-point ** :  0.50000.47220.4167  plane waves:   4738
 k-point ** :  0.50000.50000.4167  plane waves:   4728
 k-point ** :  0.44440.44440.4444  plane waves:   4740
 k-point ** :  0.47220.44440.4444  plane waves:   4734
 k-point ** :  0.50000.44440.4444  plane waves:   4732
 k-point ** :  0.47220.47220.4444  plane waves:   4736
 k-point ** :  0.50000.47220.4444  plane waves:   4738
 k-point ** :  0.50000.50000.4444  plane waves:   4728
 k-point ** :  0.47220.47220.4722  plane waves:   4740
 k-point ** :  0.50000.47220.4722  plane waves:   4740
 k-point ** :  0.50000.50000.4722  plane waves:   4752
 k-point ** :  0.50000.50000.5000  plane waves:   4776

 maximum and minimum number of plane-waves per node :   4794  4724

 maximum number of plane-waves:   4794
 maximal index in each direction:
   IXMAX= 10   IYMAX= 10   IZMAX= 10
   IXMIN=-10   IYMIN=-10   IZMIN=-10

 NGX is ok and might be reduce to  42
 NGY is ok and might be reduce to  42
 NGZ is ok and might be reduce to  42

 parallel 3dFFT wavefunction:
    minimum data exchange during FFTs selected (reduces bandwidth)
 parallel 3dFFT charge:
    minimum data exchange during FFTs selected (reduces bandwidth)

Broyden mixing: mesh for mixing (old mesh)
   NGX = 21   NGY = 21   NGZ = 21
  (NGX  = 84   NGY  = 84   NGZ  = 84)
 gives a total of   9261 points
 initial charge density was supplied:
 charge density of overlapping atoms calculated
 number of electron   44.0000000 magnetization
 keeping initial charge density in first step

 Maximum index for augmentation-charges        66345 (set IRDMAX)

 First call to EWALD:  gamma=   0.438
 Maximum number of real-space cells 3x 3x 3
 Maximum number of reciprocal cells 3x 3x 3

----------------------------------------- Iteration    1(   1)  ---------------------------------------

 eigenvalue-minimisations  : 85120
 total energy-change (2. order) : 0.6200247E+03  (-0.3205622E+04)
 number of electron   44.0000000 magnetization
 augmentation part    44.0000000 magnetization

 Free energy of the ion-electron system (eV)
  alpha Z        PSCENC =       451.66006820
  Ewald energy   TEWEN  =     -3946.65877893
  -1/2 Hartree   DENC   =      -481.73298681
  -V(xc)+E(xc)   XCENC  =        61.87142272
  PAW double counting   =      2990.04966927    -2896.51663641
  entropy T*S    EENTRO =        -0.00009774
  eigenvalues    EBANDS =       737.12629917
  atomic energy  EATOM  =      3704.22571103
  free energy    TOTEN  =       620.02467052 eV

  energy without entropy =      620.02476825  energy(sigma->0) =      620.02471938

[...]

 eigenvalue-minimisations  : 85136
 total energy-change (2. order) :-0.6132118E+03  (-0.5710605E+03)
 number of electron   44.0000000 magnetization
 augmentation part    44.0000000 magnetization

[...]

 eigenvalue-minimisations  :100128
 total energy-change (2. order) :-0.2041489E+02  (-0.2003521E+02)
 number of electron   44.0000000 magnetization
 augmentation part    44.0000000 magnetization

[...]

 Broyden mixing:
  rms(total) = 0.58784E+00    rms(broyden)= 0.58784E+00
  rms(prec ) = 0.14876E+01
  weight for this iteration     100.00

[...]

 eigenvalues of (default mixing * dielectric matrix)
  average eigenvalue GAMMA=   1.2912
  1.2912

[...]

 eigenvalue-minimisations  :104336
 total energy-change (2. order) : 0.8280958E-01  (-0.1634515E-01)
 number of electron   44.0000001 magnetization
 augmentation part    16.1076072 magnetization

[...]

 eigenvalue-minimisations  :101136
 total energy-change (2. order) :-0.1855485E-05  (-0.3969885E-07)
 number of electron   44.0000001 magnetization
 augmentation part    16.1070229 magnetization

[...]

 eigenvalue-minimisations  : 62568
 total energy-change (2. order) : 0.1100534E-06  (-0.1482670E-09)
 number of electron   44.0000001 magnetization
 augmentation part    16.1070050 magnetization

 Broyden mixing:
  rms(total) = 0.14698E-05    rms(broyden)= 0.14698E-05
  rms(prec ) = 0.23299E-05
  weight for this iteration     100.00

 eigenvalues of (default mixing * dielectric matrix)
  average eigenvalue GAMMA=   1.8432
  2.9500  2.7397  2.4238  2.4238  1.2005  0.9852  0.9852  1.0374

[...]

----------------------------------------- Iteration    1(  14)  ---------------------------------------

 eigenvalue-minimisations  : 56488
 total energy-change (2. order) :-0.9830273E-08  (-0.1414512E-10)
 number of electron   44.0000001 magnetization
 augmentation part    16.1070050 magnetization

 Free energy of the ion-electron system (eV)
  alpha Z        PSCENC =       451.66006820
  Ewald energy   TEWEN  =     -3946.65877893
  -1/2 Hartree   DENC   =      -438.51392958
  -V(xc)+E(xc)   XCENC  =        59.95541536
  PAW double counting   =      3044.06927249    -2962.15851937
  entropy T*S    EENTRO =        -0.00005551
  eigenvalues    EBANDS =        74.62658966
  atomic energy  EATOM  =      3704.22571103
  free energy    TOTEN  =       -12.79422665 eV

  energy without entropy =      -12.79417114  energy(sigma->0) =      -12.79419889

 average (electrostatic) potential at core
  the test charge radii are     1.2098
  (the norm of the test charge is              1.0000)
       1 -45.3040       2 -45.3040       3 -45.3040       4 -45.3040

 E-fermi :   6.1251     XC(G=0): -12.8826     alpha+bet :-10.4631
   add alpha+bet to get absolut eigen values

 k-point   1 :       0.0000    0.0000    0.0000
  band No.  band energies     occupation
      1      -4.0341      2.00000
      2      -1.2619      2.00000
      3      -1.2619      2.00000
      4      -1.2619      2.00000
      5      -0.9397      2.00000
      6      -0.9397      2.00000
      7      -0.9397      2.00000
      8       1.2174      2.00000
      9       1.2174      2.00000
     10       1.2174      2.00000
     11       2.8115      2.00000
     12       2.8115      2.00000
     13       4.0263      2.00000
     14       4.0263      2.00000
     15       4.0263      2.00000
     16       4.4093      2.00000
     17       4.4093      2.00000
     18       4.4093      2.00000
     19       4.4093      2.00000
     20       4.4093      2.00000
     21       4.4093      2.00000
     22       7.0672      0.00000
     23       7.0672      0.00000
     24       7.0672      0.00000
     25      12.1584      0.00000
     26      12.1584      0.00000
     27      12.1584      0.00000
     28      16.4273      0.00000
     29      16.4273      0.00000
     30      16.4273      0.00000
     31      16.4273      0.00000
     32      16.4273      0.00000

[...]

 k-point *** :       0.5000    0.5000    0.5000
  band No.  band energies     occupation
      1      -1.4931      2.00000
      2      -1.4931      2.00000
      3      -1.4931      2.00000
      4      -1.4931      2.00000
      5       1.1772      2.00000
      6       1.1772      2.00000
      7       1.1772      2.00000
      8       1.1772      2.00000
      9       1.1772      2.00000
     10       1.1772      2.00000
     11       1.1772      2.00000
     12       1.1772      2.00000
     13       4.0709      2.00000
     14       4.0709      2.00000
     15       4.0709      2.00000
     16       4.0709      2.00000
     17       4.0709      2.00000
     18       4.0709      2.00000
     19       4.0709      2.00000
     20       4.0709      2.00000
     21       5.0140      2.00000
     22       5.0140      2.00000
     23       5.0140      2.00000
     24       5.0140      2.00000
     25       9.3519      0.00000
     26       9.3519      0.00000
     27       9.3519      0.00000
     28       9.3519      0.00000
     29      20.7246      0.00000
     30      20.7246      0.00000
     31      20.7246      0.00000
     32      20.7246      0.00000

 soft charge-density along one line, spin component           1
         0         1         2         3         4         5         6         7         8         9
 total charge-density along one line

------------------------ aborting loop because EDIFF is reached ----------------------------------------

  FREE ENERGIE OF THE ION-ELECTRON SYSTEM (eV)
  free  energy   TOTEN  =       -12.794227 eV

  energy  without entropy=      -12.794171  energy(sigma->0) =      -12.794199

  FORCE on cell =-STRESS in cart. coord.  units (eV/reduce length):
  Direction    X        Y        Z        XY       YZ       ZX
  Alpha Z    451.66    451.66    451.66
  Ewald    -1315.55  -1315.55  -1315.55     -0.00     -0.00      0.00
  Hartree    146.17    146.17    146.17     -0.00     -0.00     -0.00
  E(xc)     -199.50   -199.50   -199.50     -0.00      0.00     -0.00
  Local      331.59    331.59    331.59      0.00      0.00      0.00
  n-local   -179.31   -197.69   -202.28      1.59      5.69      2.23
  augment    171.47    171.47    171.47     -0.00     -0.00     -0.00
  Kinetic    618.25    614.55    609.33     -4.87     -2.84     -3.39
  Total        6.78      6.78      6.78     -0.00      0.00      0.00
  in kB      163.83    163.83    163.83     -0.00      0.00      0.00

 VOLUME and BASIS-vectors are now :
  energy-cutoff  :     1000.00
  volume of cell :       66.34
      direct lattice vectors                 reciprocal lattice vectors
     4.048257596  0.000000000  0.000000000     0.247019854  0.000000000  0.000000000
     0.000000000  4.048257596  0.000000000     0.000000000  0.247019854  0.000000000
     0.000000000  0.000000000  4.048257596     0.000000000  0.000000000  0.247019854

  length of vectors
     4.048257596  4.048257596  4.048257596     0.247019854  0.247019854  0.247019854

 FORCES acting on ions
    electron-ion (+dipol)            ewald-force                    non-local-force                 convergence-correction
   0.352E-14 -.931E-14 -.391E-13   -.241E-14 -.314E-14 -.214E-14   -.754E-26 0.402E-25 -.914E-26   -.936E-14 0.200E-13 0.109E-13
   0.189E-12 -.126E-11 0.370E-12   0.122E-13 0.622E-14 -.205E-14   -.108E-25 -.382E-25 0.620E-26   -.112E-13 -.172E-13 0.102E-13
   0.190E-12 -.979E-14 -.232E-12   -.280E-14 -.780E-14 0.322E-14   0.151E-25 0.502E-26 0.140E-25   -.113E-13 0.168E-13 -.255E-13
   0.353E-14 0.183E-12 0.157E-12   -.612E-14 0.155E-14 0.330E-14   -.934E-26 -.318E-25 -.912E-26   -.684E-14 -.168E-13 -.260E-13
   0.386E-12 -.110E-11 0.256E-12   0.897E-15 -.317E-14 0.233E-14   -.126E-25 -.248E-25 0.193E-26   -.387E-13 0.278E-14 -.304E-13

 POSITION                                       TOTAL-FORCE (eV/Angst)
      0.00000      0.00000      0.00000        -0.000000     -0.000000      0.000000
      2.02413      2.02413      0.00000         0.000000      0.000000     -0.000000
      2.02413      0.00000      2.02413        -0.000000      0.000000      0.000000
      0.00000      2.02413      2.02413         0.000000      0.000000     -0.000000
    total drift:                                0.000000     -0.000000      0.000000

 mean value of Nose-termostat <S>:     1.000 mean value of <T> :     0.000
 mean temperature <T/S>/<1/S>  :     0.000