 vasp.4.6.28 25Jul05 complex
 executed on             LinuxIFC date 2016.01.16  20:23:28

 INCAR:
 POTCAR:   PAW_PBE Cu 05Jan2001
 POTCAR:   PAW_PBE Cu 05Jan2001
   VRHFIN =Cu: d10 p1

   TITEL  = PAW_PBE Cu 05Jan2001
   POMASS =   63.546; ZVAL   =   11.000    mass and valenz
   ENMAX  =  273.214; ENMIN  =  204.910 eV
   QCUT   =   -4.481; QGAM   =    8.962    optimization parameters

   Description
     l     E      TYP  RCUT    TYP  RCUT
     2   .000     23  2.300
     2   .000     23  2.300
     0   .000     23  2.300
     0   .000     23  2.300
     1  -.200     23  2.300
     1   .000     23  2.300
     3   .000      7   .000

 PAW_PBE Cu 05Jan2001                   :

 POSCAR: Cu
  positions in direct lattice

 ion  position               nearest neighbor table
   1  0.000  0.000  0.000-   9 2.47  10 2.47  11 2.47  12 2.47  17 2.47  18 2.47  21 2.47  22 2.47
                            25 2.47  27 2.47  29 2.47  31 2.47
   2  0.500  0.000  0.000-   9 2.47  10 2.47  11 2.47  12 2.47  17 2.47  18 2.47  21 2.47  22 2.47
                            26 2.47  28 2.47  30 2.47  32 2.47
   3  0.000  0.500  0.000-   9 2.47  10 2.47  11 2.47  12 2.47  19 2.47  20 2.47  23 2.47  24 2.47
                            25 2.47  27 2.47  29 2.47  31 2.47
   4  0.500  0.500  0.000-   9 2.47  10 2.47  11 2.47  12 2.47  19 2.47  20 2.47  23 2.47  24 2.47
                            26 2.47  28 2.47  30 2.47  32 2.47
   5  0.000  0.000  0.500-  13 2.47  14 2.47  15 2.47  16 2.47  17 2.47  18 2.47  21 2.47  22 2.47
                            25 2.47  27 2.47  29 2.47  31 2.47
   6  0.500  0.000  0.500-  13 2.47  14 2.47  15 2.47  16 2.47  17 2.47  18 2.47  21 2.47  22 2.47
                            26 2.47  28 2.47  30 2.47  32 2.47
   7  0.000  0.500  0.500-  13 2.47  14 2.47  15 2.47  16 2.47  19 2.47  20 2.47  23 2.47  24 2.47
                            25 2.47  27 2.47  29 2.47  31 2.47
   8  0.500  0.500  0.500-  13 2.47  14 2.47  15 2.47  16 2.47  19 2.47  20 2.47  23 2.47  24 2.47
                            26 2.47  28 2.47  30 2.47  32 2.47
   9  0.250  0.250  0.000-   1 2.47   2 2.47   3 2.47   4 2.47  17 2.47  19 2.47  21 2.47  23 2.47
                            25 2.47  26 2.47  29 2.47  30 2.47
  10  0.750  0.250  0.000-   1 2.47   2 2.47   3 2.47   4 2.47  18 2.47  20 2.47  22 2.47  24 2.47
                            25 2.47  26 2.47  29 2.47  30 2.47
  11  0.250  0.750  0.000-   1 2.47   2 2.47   3 2.47   4 2.47  17 2.47  19 2.47  21 2.47  23 2.47
                            27 2.47  28 2.47  31 2.47  32 2.47
  12  0.750  0.750  0.000-   1 2.47   2 2.47   3 2.47   4 2.47  18 2.47  20 2.47  22 2.47  24 2.47
                            27 2.47  28 2.47  31 2.47  32 2.47
  13  0.250  0.250  0.500-   5 2.47   6 2.47   7 2.47   8 2.47  17 2.47  19 2.47  21 2.47  23 2.47
                            25 2.47  26 2.47  29 2.47  30 2.47
  14  0.750  0.250  0.500-   5 2.47   6 2.47   7 2.47   8 2.47  18 2.47  20 2.47  22 2.47  24 2.47
                            25 2.47  26 2.47  29 2.47  30 2.47
  15  0.250  0.750  0.500-   5 2.47   6 2.47   7 2.47   8 2.47  17 2.47  19 2.47  21 2.47  23 2.47
                            27 2.47  28 2.47  31 2.47  32 2.47
  16  0.750  0.750  0.500-   5 2.47   6 2.47   7 2.47   8 2.47  18 2.47  20 2.47  22 2.47  24 2.47
                            27 2.47  28 2.47  31 2.47  32 2.47
  17  0.250  0.000  0.250-   1 2.47   2 2.47   5 2.47   6 2.47   9 2.47  11 2.47  13 2.47  15 2.47
                            25 2.47  26 2.47  27 2.47  28 2.47
  18  0.750  0.000  0.250-   1 2.47   2 2.47   5 2.47   6 2.47  10 2.47  12 2.47  14 2.47  16 2.47
                            25 2.47  26 2.47  27 2.47  28 2.47
  19  0.250  0.500  0.250-   3 2.47   4 2.47   7 2.47   8 2.47   9 2.47  11 2.47  13 2.47  15 2.47
                            25 2.47  26 2.47  27 2.47  28 2.47
  20  0.750  0.500  0.250-   3 2.47   4 2.47   7 2.47   8 2.47  10 2.47  12 2.47  14 2.47  16 2.47
                            25 2.47  26 2.47  27 2.47  28 2.47
  21  0.250  0.000  0.750-   1 2.47   2 2.47   5 2.47   6 2.47   9 2.47  11 2.47  13 2.47  15 2.47
                            29 2.47  30 2.47  31 2.47  32 2.47
  22  0.750  0.000  0.750-   1 2.47   2 2.47   5 2.47   6 2.47  10 2.47  12 2.47  14 2.47  16 2.47
                            29 2.47  30 2.47  31 2.47  32 2.47
  23  0.250  0.500  0.750-   3 2.47   4 2.47   7 2.47   8 2.47   9 2.47  11 2.47  13 2.47  15 2.47
                            29 2.47  30 2.47  31 2.47  32 2.47
  24  0.750  0.500  0.750-   3 2.47   4 2.47   7 2.47   8 2.47  10 2.47  12 2.47  14 2.47  16 2.47
                            29 2.47  30 2.47  31 2.47  32 2.47
  25  0.000  0.250  0.250-   1 2.47   3 2.47   5 2.47   7 2.47   9 2.47  10 2.47  13 2.47  14 2.47
                            17 2.47  18 2.47  19 2.47  20 2.47
  26  0.500  0.250  0.250-   2 2.47   4 2.47   6 2.47   8 2.47   9 2.47  10 2.47  13 2.47  14 2.47
                            17 2.47  18 2.47  19 2.47  20 2.47
  27  0.000  0.750  0.250-   1 2.47   3 2.47   5 2.47   7 2.47  11 2.47  12 2.47  15 2.47  16 2.47
                            17 2.47  18 2.47  19 2.47  20 2.47
  28  0.500  0.750  0.250-   2 2.47   4 2.47   6 2.47   8 2.47  11 2.47  12 2.47  15 2.47  16 2.47
                            17 2.47  18 2.47  19 2.47  20 2.47
  29  0.000  0.250  0.750-   1 2.47   3 2.47   5 2.47   7 2.47   9 2.47  10 2.47  13 2.47  14 2.47
                            21 2.47  22 2.47  23 2.47  24 2.47
  30  0.500  0.250  0.750-   2 2.47   4 2.47   6 2.47   8 2.47   9 2.47  10 2.47  13 2.47  14 2.47
                            21 2.47  22 2.47  23 2.47  24 2.47
  31  0.000  0.750  0.750-   1 2.47   3 2.47   5 2.47   7 2.47  11 2.47  12 2.47  15 2.47  16 2.47
                            21 2.47  22 2.47  23 2.47  24 2.47
  32  0.500  0.750  0.750-   2 2.47   4 2.47   6 2.47   8 2.47  11 2.47  12 2.47  15 2.47  16 2.47
                            21 2.47  22 2.47  23 2.47  24 2.47

  LATTYP: Found a simple cubic cell.
 ALAT       =     6.9819183585

  Lattice vectors:

 A1 = (   6.9819183585,   0.0000000000,   0.0000000000)
 A2 = (   0.0000000000,   6.9819183585,   0.0000000000)
 A3 = (   0.0000000000,   0.0000000000,   6.9819183585)
 Subroutine PRICEL returns following result:

  LATTYP: Found a face centered cubic cell.
 ALAT       =     3.4909591793

  Lattice vectors:

 A1 = (   1.7454795896,   1.7454795896,  -0.0000000000)
 A2 = (   1.7454795896,   0.0000000000,  -1.7454795896)
 A3 = (   0.0000000000,   1.7454795896,  -1.7454795896)

  32 primitive cells build up your supercell.

Analysis of symmetry for initial positions (statically):

 Routine SETGRP: Setting up the symmetry group for a
 simple cubic supercell.

 Subroutine GETGRP returns: Found 48 space group operations
 (whereof 48 operations were pure point group operations)
 out of a pool of 48 trial point group operations.

The static configuration has the point symmetry O_h .

Analysis of symmetry for dynamics (positions and initial velocities):

 Subroutine DYNSYM returns: Found 48 space group operations
 (whereof 48 operations were pure point group operations)
 out of a pool of 48 trial space group operations
 (whereof 48 operations were pure point group operations)
 and found also    32 'primitive' translations

The dynamic configuration has the point symmetry O_h .

 KPOINTS: Automatic mesh

Automatic generation of k-mesh.
 generate k-points for:   7   7   7

 Subroutine IBZKPT returns following result:

 Found     20 irreducible k-points:

 Following reciprocal coordinates:
            Coordinates               Weight
  0.000000  0.000000  0.000000      1.000000
  0.142857  0.000000  0.000000      6.000000
  0.285714  0.000000  0.000000      6.000000
  0.428571  0.000000  0.000000      6.000000
  0.142857  0.142857  0.000000     12.000000
  0.285714  0.142857  0.000000     24.000000
  0.428571  0.142857  0.000000     24.000000
  0.285714  0.285714  0.000000     12.000000
  0.428571  0.285714  0.000000     24.000000
  0.428571  0.428571  0.000000     12.000000
  0.142857  0.142857  0.142857      8.000000
  0.285714  0.142857  0.142857     24.000000
  0.428571  0.142857  0.142857     24.000000
  0.285714  0.285714  0.142857     24.000000
  0.428571  0.285714  0.142857     48.000000
  0.428571  0.428571  0.142857     24.000000
  0.285714  0.285714  0.285714      8.000000
  0.428571  0.285714  0.285714     24.000000
  0.428571  0.428571  0.285714     24.000000
  0.428571  0.428571  0.428571      8.000000

 Following cartesian coordinates:
            Coordinates               Weight
  0.000000  0.000000  0.000000      1.000000
  0.020461  0.000000  0.000000      6.000000
  0.040922  0.000000  0.000000      6.000000
  0.061383  0.000000  0.000000      6.000000
  0.020461  0.020461  0.000000     12.000000
  0.040922  0.020461  0.000000     24.000000
  0.061383  0.020461  0.000000     24.000000
  0.040922  0.040922  0.000000     12.000000
  0.061383  0.040922  0.000000     24.000000
  0.061383  0.061383  0.000000     12.000000
  0.020461  0.020461  0.020461      8.000000
  0.040922  0.020461  0.020461     24.000000
  0.061383  0.020461  0.020461     24.000000
  0.040922  0.040922  0.020461     24.000000
  0.061383  0.040922  0.020461     48.000000
  0.061383  0.061383  0.020461     24.000000
  0.040922  0.040922  0.040922      8.000000
  0.061383  0.040922  0.040922     24.000000
  0.061383  0.061383  0.040922     24.000000
  0.061383  0.061383  0.061383      8.000000

 I would recommend the setting:
   dimension x,y,z NGX =    51 NGY =   51 NGZ =   51
 SYSTEM =  unknown system
 POSCAR =  Cu

 Startparameter for this run:
   NWRITE =      2    write-flag & timer
   PREC   = accura    medium, high low
   ISTART =      0    job   : 0-new  1-cont  2-samecut
   ICHARG =      2    charge: 1-file 2-atom 10-const
   ISPIN  =      1    spin polarized calculation?
   LNONCOLLINEAR =      F non collinear calculations
   LSORBIT =      F    spin-orbit coupling
   INIWAV =      1    electr: 0-lowe 1-rand  2-diag
   LASPH  =      F    aspherical Exc in radial PAW
   METAGGA=      F    non-selfconsistent MetaGGA calc.

 Electronic Relaxation 1
   ENCUT  =  500.0 eV  36.75 Ry    6.06 a.u.  12.73 12.73 12.73*2*pi/ulx,y,z
   ENINI  =  500.0     initial cutoff
   ENAUG  =  516.5 eV  augmentation charge cutoff
   NELM   =     60;   NELMIN=  2; NELMDL= -5     # of ELM steps
   EDIFF  = 0.1E-07   stopping-criterion for ELM
   LREAL  =      F    real-space projection
   LCOMPAT=      F    compatible to vasp.4.4
   LREAL_COMPAT= F    compatible to vasp.4.5.1-3
   GGA_COMPAT  = T    GGA compatible to vasp.4.4-vasp.4.6
   LMAXPAW     = -100 max onsite density
   LMAXMIX     =    2 max onsite mixed and CHGCAR
   VOSKOWN=      0    Vosko Wilk Nusair interpolation
   ROPT   =    0.00000
 Ionic relaxation
   EDIFFG = 0.1E-06   stopping-criterion for IOM
   NSW    =      0    number of steps for IOM
   NBLOCK =      1;   KBLOCK =      1    inner block; outer block
   IBRION =     -1    ionic relax: 0-MD 1-quasi-New 2-CG
   NFREE  =      0    steps in history (QN), initial steepest desc. (CG)
   ISIF   =      2    stress and relaxation
[...]
 augmentation part   229.2233667 magnetization

[...]

 eigenvalue-minimisations  :  4776
 total energy-change (2. order) : 0.1398439E-07  (-0.5606875E-11)
 number of electron  352.0000024 magnetization
 augmentation part   229.2232531 magnetization

 Broyden mixing:
  rms(total) = 0.51183E-05    rms(broyden)= 0.51183E-05
  rms(prec ) = 0.73394E-05
  weight for this iteration     100.00

 eigenvalues of (default mixing * dielectric matrix)
  average eigenvalue GAMMA=   1.6649
  3.0733  2.5924  2.5924  2.6433  2.5049  0.7167  1.0174  1.0174  0.9875  0.9686
  0.9686  0.8962

[...]

----------------------------------------- Iteration    1(  18)  ---------------------------------------

 eigenvalue-minimisations  :  4800
 total energy-change (2. order) : 0.4300091E-08  ( 0.1063354E-11)
 number of electron  352.0000024 magnetization
 augmentation part   229.2232531 magnetization

 Free energy of the ion-electron system (eV)
  alpha Z        PSCENC =      3843.96185696
  Ewald energy   TEWEN  =    -36613.64633651
  -1/2 Hartree   DENC   =     -9061.73431070
  -V(xc)+E(xc)   XCENC  =      1378.02151789
  PAW double counting   =     35742.16376783   -40395.10216164
  entropy T*S    EENTRO =        -0.00076247
  eigenvalues    EBANDS =       478.85892164
  atomic energy  EATOM  =     44511.25856501
  free energy    TOTEN  =      -116.21894199 eV

  energy without entropy =     -116.21817952  energy(sigma->0) =     -116.21856076

 average (electrostatic) potential at core
  the test charge radii are     1.0053
  (the norm of the test charge is              1.0000)
       1 -39.2329       2 -39.2329       3 -39.2329       4 -39.2329       5 -39.2329
       6 -39.2329       7 -39.2329       8 -39.2329       9 -39.2329      10 -39.2329
      11 -39.2329      12 -39.2329      13 -39.2329      14 -39.2329      15 -39.2329
      16 -39.2329      17 -39.2329      18 -39.2329      19 -39.2329      20 -39.2329
      21 -39.2329      22 -39.2329      23 -39.2329      24 -39.2329      25 -39.2329
      26 -39.2329      27 -39.2329      28 -39.2329      29 -39.2329      30 -39.2329
      31 -39.2329      32 -39.2329

 E-fermi :   4.7851     XC(G=0): -13.4269     alpha+bet :-10.6942
   add alpha+bet to get absolut eigen values

 k-point   1 :       0.0000    0.0000    0.0000
  band No.  band energies     occupation
      1      -5.4319      2.00000
      2      -2.4884      2.00000
      3      -2.4884      2.00000
      4      -2.4884      2.00000
      5      -2.4884      2.00000
      6      -2.4884      2.00000
      7      -2.4884      2.00000
      8      -0.9729      2.00000
      9      -0.9729      2.00000
     10      -0.9729      2.00000
     11      -0.9729      2.00000
     12      -0.8100      2.00000
     13      -0.8100      2.00000
     14      -0.8100      2.00000
     15      -0.4961      2.00000
     16      -0.4961      2.00000
     17      -0.4961      2.00000
     18      -0.4961      2.00000
     19      -0.4961      2.00000
     20      -0.4961      2.00000
     21      -0.4961      2.00000
     22      -0.4961      2.00000
     23      -0.4961      2.00000
     24      -0.4961      2.00000
     25      -0.4961      2.00000
     26      -0.4961      2.00000
     27      -0.2850      2.00000
     28      -0.2850      2.00000
     29      -0.2850      2.00000
     30       0.0306      2.00000
     31       0.0306      2.00000
     32       0.0306      2.00000
     33       0.0306      2.00000
     34       0.0306      2.00000
     35       0.0306      2.00000
     36       0.5074      2.00000
     37       0.5074      2.00000
     38       0.5074      2.00000
     39       0.5074      2.00000
     40       0.5074      2.00000
     41       0.5074      2.00000
     42       0.7510      2.00000
     43       0.7510      2.00000
     44       0.7510      2.00000
     45       0.7510      2.00000
     46       0.7510      2.00000
     47       0.7510      2.00000
     48       0.7510      2.00000
     49       0.7510      2.00000
     50       0.7510      2.00000
     51       0.7510      2.00000
     52       0.7510      2.00000
     53       0.7510      2.00000
     54       0.7562      2.00000
     55       0.7562      2.00000
     56       0.7562      2.00000
     57       0.7562      2.00000
     58       0.7562      2.00000
     59       0.7562      2.00000
     60       0.7562      2.00000
[...]
    202      11.3872      0.00000
    203      12.6332      0.00000
    204      12.6332      0.00000
    205      12.6332      0.00000
    206      13.6058      0.00000
    207      13.6058      0.00000
    208      13.6058      0.00000
    209      13.6058      0.00000
    210      13.6058      0.00000
    211      13.6058      0.00000
    212      14.6185      0.00000
    213      14.6185      0.00000
    214      14.6185      0.00000
    215      14.6185      0.00000
    216      14.6185      0.00000

[...]

 k-point  20 :       0.4286    0.4286    0.4286
  band No.  band energies     occupation
      1      -3.7168      2.00000
      2      -3.3111      2.00000
      3      -3.3111      2.00000
      4      -3.3111      2.00000
      5      -2.9304      2.00000
      6      -2.9304      2.00000
      7      -2.9304      2.00000
      8      -2.5843      2.00000
      9      -0.4360      2.00000
     10      -0.4360      2.00000
     11      -0.4360      2.00000
     12      -0.3308      2.00000
     13      -0.3308      2.00000
     14      -0.3308      2.00000
     15      -0.3308      2.00000
     16      -0.3308      2.00000
     17      -0.3308      2.00000
     18      -0.3166      2.00000
     19      -0.3166      2.00000
     20      -0.3166      2.00000
     21      -0.3158      2.00000
     22      -0.3158      2.00000
     23      -0.3158      2.00000
     24      -0.1908      2.00000
     25      -0.1908      2.00000
     26      -0.1908      2.00000
     27      -0.1908      2.00000
     28      -0.1908      2.00000
     29      -0.1908      2.00000
     30      -0.1446      2.00000
     31      -0.1446      2.00000
     32      -0.1446      2.00000
     33       0.1897      2.00000
     34       0.1897      2.00000
     35       0.1897      2.00000
     36       0.2995      2.00000
     37       0.2995      2.00000
     38       0.2995      2.00000
     39       0.2995      2.00000
     40       0.2995      2.00000
     41       0.2995      2.00000
     42       0.3120      2.00000
     43       0.3120      2.00000
     44       0.3120      2.00000
     45       0.4098      2.00000
     46       0.4098      2.00000
     47       0.4098      2.00000
     48       0.4371      2.00000
     49       0.4371      2.00000
     50       0.4371      2.00000
     51       0.4371      2.00000
     52       0.4371      2.00000
     53       0.4371      2.00000
     54       0.5685      2.00000
     55       0.5685      2.00000
     56       0.5685      2.00000
     57       1.0287      2.00000
     58       1.0287      2.00000
     59       1.0287      2.00000
     60       1.0334      2.00000
[...]
    202      11.8400      0.00000
    203      11.8400      0.00000
    204      11.8400      0.00000
    205      12.3489      0.00000
    206      12.3489      0.00000
    207      12.3489      0.00000
    208      12.3489      0.00000
    209      12.3489      0.00000
    210      12.3489      0.00000
    211      13.0005      0.00000
    212      13.0005      0.00000
    213      13.0005      0.00000
    214      13.5222      0.00000
    215      13.5222      0.00000
    216      13.5222      0.00000

 soft charge-density along one line, spin component           1
         0         1         2         3         4         5         6         7         8         9
 total charge-density along one line

------------------------ aborting loop because EDIFF is reached ----------------------------------------

  FREE ENERGIE OF THE ION-ELECTRON SYSTEM (eV)
  free  energy   TOTEN  =      -116.218942 eV

  energy  without entropy=     -116.218180  energy(sigma->0) =     -116.218561

  FORCE on cell =-STRESS in cart. coord.  units (eV/reduce length):
  Direction    X        Y        Z        XY       YZ       ZX
  Alpha Z   3843.96   3843.96   3843.96
  Ewald   -12204.60 -12204.60 -12204.60      0.00      0.00      0.00
  Hartree   3020.58   3020.58   3020.58     -0.00     -0.00     -0.00
  E(xc)    -2013.41  -2013.41  -2013.41      0.00      0.00     -0.00
  Local     4172.72   4172.72   4172.72      0.00      0.00      0.00
  n-local  -1131.72  -1128.81  -1122.86      2.41     -0.09      1.09
  augment   1811.35   1811.35   1811.35     -0.00     -0.00     -0.00
  Kinetic   2544.09   2543.92   2550.10      0.34     -3.59     -0.55
  Total       48.84     48.84     48.84      0.00      0.00      0.00
  in kB      229.91    229.91    229.91      0.00      0.00      0.00

 VOLUME and BASIS-vectors are now :
  energy-cutoff  :      500.00
  volume of cell :      340.35
      direct lattice vectors                 reciprocal lattice vectors
     6.981918359  0.000000000  0.000000000     0.143227112  0.000000000  0.000000000
     0.000000000  6.981918359  0.000000000     0.000000000  0.143227112  0.000000000
     0.000000000  0.000000000  6.981918359     0.000000000  0.000000000  0.143227112

  length of vectors
     6.981918359  6.981918359  6.981918359     0.143227112  0.143227112  0.143227112

 FORCES acting on ions
    electron-ion (+dipol)            ewald-force                    non-local-force                 convergence-correction
   -.163E-12 -.255E-12 -.203E-12   -.147E-12 -.160E-13 0.268E-12   0.315E-25 -.404E-25 0.355E-25   0.143E-12 0.102E-12 -.917E-13
   0.892E-12 -.141E-12 0.387E-11   -.662E-13 -.444E-14 0.166E-12   -.751E-25 0.840E-25 -.291E-25   -.679E-13 0.636E-13 -.119E-12
   -.237E-12 0.978E-12 -.202E-12   -.114E-12 0.178E-14 0.155E-12   -.105E-24 -.116E-24 -.365E-25   0.179E-12 -.571E-13 -.171E-12
   0.960E-12 -.468E-11 0.310E-11   -.990E-13 -.240E-13 -.444E-14   0.582E-25 0.145E-25 0.378E-25   -.116E-12 -.869E-14 -.247E-12
   -.163E-12 -.254E-12 0.950E-12   -.126E-12 -.178E-14 -.764E-13   -.178E-25 -.147E-24 -.111E-24   0.172E-12 0.807E-13 0.959E-14
   0.886E-12 -.161E-12 -.480E-11   -.733E-13 -.355E-14 0.897E-13   -.480E-25 0.695E-25 0.355E-25   -.101E-12 0.434E-13 -.578E-14
   -.237E-12 0.971E-12 0.945E-12   -.142E-12 -.124E-13 0.444E-13   -.137E-25 -.444E-25 -.190E-25   0.201E-12 -.429E-13 -.173E-13
   0.959E-12 -.456E-11 -.444E-11   -.990E-13 -.240E-13 0.147E-12   0.477E-25 0.162E-25 0.735E-25   -.136E-12 0.160E-13 -.470E-13
   0.416E-12 -.242E-11 0.142E-11   0.888E-14 0.247E-13 0.176E-12   0.317E-25 0.929E-25 0.185E-24   -.303E-12 -.187E-12 -.126E-12
   0.134E-11 0.978E-13 -.683E-11   -.373E-13 -.105E-14 0.622E-13   -.133E-24 0.590E-25 0.719E-25   0.353E-12 -.297E-12 -.122E-12
   0.327E-12 0.424E-11 0.144E-11   0.444E-14 0.131E-13 0.109E-12   -.587E-25 -.355E-25 -.147E-25   -.251E-12 0.195E-12 -.126E-12
   0.143E-11 0.174E-10 -.592E-11   -.329E-13 -.381E-14 0.524E-13   0.113E-24 -.549E-25 -.784E-25   0.317E-12 0.215E-12 -.135E-12
   0.414E-12 0.312E-11 0.247E-11   0.178E-14 -.179E-13 -.835E-13   0.276E-25 -.598E-25 0.559E-25   -.345E-12 -.141E-12 -.600E-13
   0.134E-11 0.111E-10 -.242E-11   0.124E-13 -.295E-13 -.266E-13   -.707E-25 -.727E-25 0.246E-25   0.394E-12 -.255E-12 0.357E-13
   0.325E-12 -.124E-11 0.271E-11   0.444E-14 -.826E-14 -.240E-13   0.569E-25 0.840E-25 -.971E-25   -.302E-12 0.151E-12 -.139E-13
   0.143E-11 0.653E-11 -.319E-11   -.329E-13 -.381E-14 0.897E-13   0.606E-25 0.380E-25 0.505E-27   0.350E-12 0.156E-12 0.531E-13
   0.369E-12 -.196E-12 -.248E-11   0.444E-13 -.515E-13 -.256E-12   0.384E-25 0.977E-25 0.852E-25   -.313E-12 0.267E-13 -.560E-12
   0.139E-11 -.247E-12 -.999E-11   -.178E-14 0.533E-14 -.154E-12   -.727E-25 0.162E-26 0.395E-25   0.365E-12 0.480E-13 -.570E-12
   0.396E-12 0.821E-12 0.306E-11   -.124E-13 -.266E-13 -.142E-12   -.136E-24 -.889E-25 -.101E-25   -.297E-12 0.220E-13 -.591E-12
   0.136E-11 0.384E-11 0.114E-11   -.178E-14 -.266E-13 0.166E-13   0.315E-25 -.505E-26 0.319E-25   0.368E-12 -.102E-12 -.584E-12
   0.350E-12 -.183E-12 0.412E-11   0.329E-13 -.329E-13 0.823E-13   -.945E-25 0.162E-26 0.354E-25   -.307E-12 0.498E-15 0.488E-12
   0.141E-11 -.223E-12 0.119E-10   -.444E-14 0.240E-13 -.197E-13   -.121E-25 0.969E-26 -.515E-25   0.363E-12 0.391E-13 0.536E-12
   0.378E-12 0.109E-11 -.146E-11   0.329E-13 0.329E-13 -.241E-13   0.164E-24 0.201E-24 -.108E-24   -.270E-12 0.467E-13 0.386E-12
   0.138E-11 0.345E-11 -.724E-13   -.444E-14 -.240E-13 -.133E-12   -.775E-25 0.808E-26 -.687E-26   0.340E-12 -.884E-13 0.426E-12
   -.181E-12 0.390E-12 0.394E-12   0.951E-13 0.564E-13 -.189E-12   -.565E-25 -.889E-26 -.242E-25   0.173E-12 -.245E-12 -.580E-12
   0.908E-12 -.483E-11 -.849E-12   0.148E-12 -.575E-15 -.189E-12   0.149E-26 0.117E-24 0.885E-25   -.113E-12 -.257E-12 -.636E-12
   -.221E-12 0.144E-11 0.395E-12   0.877E-13 -.328E-13 -.122E-12   0.125E-25 -.182E-25 -.116E-24   0.238E-12 0.188E-12 -.542E-12
   0.940E-12 -.512E-11 -.475E-12   0.112E-12 0.239E-13 -.654E-13   -.319E-25 -.630E-25 -.808E-25   -.183E-12 0.188E-12 -.623E-12
   -.181E-12 0.389E-12 0.141E-11   0.112E-12 0.355E-13 0.714E-13   0.287E-25 0.307E-25 -.351E-25   0.122E-12 -.216E-12 0.424E-12
   0.907E-12 -.373E-11 -.183E-11   0.128E-12 0.353E-13 -.991E-13   -.121E-24 0.420E-25 0.565E-25   -.667E-13 -.210E-12 0.457E-12
   -.221E-12 0.144E-11 0.141E-11   0.765E-13 0.190E-13 0.120E-13   0.331E-25 -.275E-25 -.402E-25   0.199E-12 0.162E-12 0.437E-12
   0.939E-12 0.541E-11 0.943E-11   0.149E-12 0.189E-13 -.102E-12   0.117E-24 0.307E-25 -.913E-25   -.147E-12 0.147E-12 0.442E-12
   0.199E-10 0.344E-10 0.502E-11   0.577E-13 -.548E-13 -.170E-12   -.270E-24 0.217E-24 -.934E-25   0.959E-12 -.216E-12 -.227E-11

 POSITION                                       TOTAL-FORCE (eV/Angst)
      0.00000      0.00000      0.00000         0.000000      0.000000      0.000000
      3.49096      0.00000      0.00000        -0.000000      0.000000      0.000000
      0.00000      3.49096      0.00000         0.000000      0.000000      0.000000
      3.49096      3.49096      0.00000         0.000000     -0.000000     -0.000000
      0.00000      0.00000      3.49096         0.000000      0.000000      0.000000
      3.49096      0.00000      3.49096        -0.000000      0.000000      0.000000
      0.00000      3.49096      3.49096         0.000000     -0.000000     -0.000000
      3.49096      3.49096      3.49096         0.000000      0.000000      0.000000
      1.74548      1.74548      0.00000         0.000000     -0.000000     -0.000000
      5.23644      1.74548      0.00000         0.000000      0.000000     -0.000000
      1.74548      5.23644      0.00000         0.000000      0.000000      0.000000
      5.23644      5.23644      0.00000        -0.000000     -0.000000      0.000000
      1.74548      1.74548      3.49096         0.000000      0.000000      0.000000
      5.23644      1.74548      3.49096         0.000000      0.000000      0.000000
      1.74548      5.23644      3.49096        -0.000000     -0.000000      0.000000
      5.23644      5.23644      3.49096        -0.000000     -0.000000     -0.000000
      1.74548      0.00000      1.74548        -0.000000      0.000000     -0.000000
      5.23644      0.00000      1.74548         0.000000      0.000000      0.000000
      1.74548      3.49096      1.74548        -0.000000     -0.000000      0.000000
      5.23644      3.49096      1.74548        -0.000000      0.000000      0.000000
      1.74548      0.00000      5.23644         0.000000     -0.000000      0.000000
      5.23644      0.00000      5.23644         0.000000      0.000000     -0.000000
      1.74548      3.49096      5.23644         0.000000     -0.000000     -0.000000
      5.23644      3.49096      5.23644         0.000000      0.000000      0.000000
      0.00000      1.74548      1.74548         0.000000     -0.000000      0.000000
      3.49096      1.74548      1.74548        -0.000000      0.000000      0.000000
      0.00000      5.23644      1.74548        -0.000000     -0.000000      0.000000
      3.49096      5.23644      1.74548        -0.000000      0.000000     -0.000000
      0.00000      1.74548      5.23644         0.000000     -0.000000     -0.000000
      3.49096      1.74548      5.23644         0.000000      0.000000     -0.000000
      0.00000      5.23644      5.23644         0.000000      0.000000     -0.000000
      3.49096      5.23644      5.23644        -0.000000     -0.000000     -0.000000
    total drift:                                0.000000      0.000000      0.000000

 mean value of Nose-termostat <S>:     1.000 mean value of <T> :     0.000
 mean temperature <T/S>/<1/S>  :     0.000