 vasp.4.6.28 25Jul05 complex
 executed on             LinuxIFC date 2017.01.14  04:20:10

 INCAR:
 POTCAR:   PAW_PBE Cu 05Jan2001
 POTCAR:   PAW_PBE Cu 05Jan2001
   VRHFIN =Cu: d10 p1

   TITEL  = PAW_PBE Cu 05Jan2001
   POMASS =   63.546; ZVAL   =   11.000    mass and valenz
   ENMAX  =  273.214; ENMIN  =  204.910 eV
   QCUT   =   -4.481; QGAM   =    8.962    optimization parameters

   Description
     l     E      TYP  RCUT    TYP  RCUT
     2   .000     23  2.300
     2   .000     23  2.300
     0   .000     23  2.300
     0   .000     23  2.300
     1  -.200     23  2.300
     1   .000     23  2.300
     3   .000      7   .000

 PAW_PBE Cu 05Jan2001                   :

 POSCAR: Cu
  positions in direct lattice
  velocities in cartesian coordinates

 ion  position               nearest neighbor table
   1  0.000  0.000  0.000-   2 2.73   3 2.73   4 2.73   3 2.73   4 2.73   2 2.73   4 2.73   4 2.73
                             2 2.73   3 2.73   3 2.73   2 2.73
   2  0.500  0.500  0.000-   1 2.73   3 2.73   4 2.73   3 2.73   4 2.73   1 2.73   3 2.73   3 2.73
                             1 2.73   4 2.73   4 2.73   1 2.73
   3  0.500  0.000  0.500-   1 2.73   2 2.73   4 2.73   1 2.73   2 2.73   2 2.73   4 2.73   2 2.73
                             1 2.73   4 2.73   1 2.73   4 2.73
   4  0.000  0.500  0.500-   1 2.73   2 2.73   3 2.73   1 2.73   2 2.73   1 2.73   3 2.73   1 2.73
                             2 2.73   3 2.73   2 2.73   3 2.73

  LATTYP: Found a simple cubic cell.
 ALAT       =     3.8550336787

  Lattice vectors:

 A1 = (   3.8550336787,   0.0000000000,   0.0000000000)
 A2 = (   0.0000000000,   3.8550336787,   0.0000000000)
 A3 = (   0.0000000000,   0.0000000000,   3.8550336787)
 Subroutine PRICEL returns following result:

  LATTYP: Found a face centered cubic cell.
 ALAT       =     3.8550336787

  Lattice vectors:

 A1 = (   1.9275168393,   1.9275168393,  -0.0000000000)
 A2 = (   1.9275168393,   0.0000000000,  -1.9275168393)
 A3 = (   0.0000000000,   1.9275168393,  -1.9275168393)

   4 primitive cells build up your supercell.

Analysis of symmetry for initial positions (statically):

 Routine SETGRP: Setting up the symmetry group for a
 simple cubic supercell.

 Subroutine GETGRP returns: Found 48 space group operations
 (whereof 48 operations were pure point group operations)
 out of a pool of 48 trial point group operations.

The static configuration has the point symmetry O_h .

Analysis of symmetry for dynamics (positions and initial velocities):

 Subroutine DYNSYM returns: Found 48 space group operations
 (whereof 48 operations were pure point group operations)
 out of a pool of 48 trial space group operations
 (whereof 48 operations were pure point group operations)
 and found also     4 'primitive' translations

The dynamic configuration has the point symmetry O_h .

 KPOINTS: Automatic mesh

Automatic generation of k-mesh.

 Subroutine IBZKPT returns following result:

 Found   1330 irreducible k-points:

 Following reciprocal coordinates:
            Coordinates               Weight
  0.000000  0.000000  0.000000      1.000000
  0.027778  0.000000  0.000000      6.000000
  0.055556  0.000000  0.000000      6.000000
  0.083333  0.000000  0.000000      6.000000
  0.111111  0.000000  0.000000      6.000000
  0.138889  0.000000  0.000000      6.000000
  0.166667  0.000000  0.000000      6.000000
  0.194444  0.000000  0.000000      6.000000
  0.222222  0.000000  0.000000      6.000000
  0.250000  0.000000  0.000000      6.000000
  0.277778  0.000000  0.000000      6.000000
  0.305556  0.000000  0.000000      6.000000
  0.333333  0.000000  0.000000      6.000000
  0.361111  0.000000  0.000000      6.000000
  0.388889  0.000000  0.000000      6.000000
  0.416667  0.000000  0.000000      6.000000
  0.444444  0.000000  0.000000      6.000000
  0.472222  0.000000  0.000000      6.000000
  0.500000  0.000000  0.000000      3.000000
  0.027778  0.027778  0.000000     12.000000
  0.055556  0.027778  0.000000     24.000000
  0.083333  0.027778  0.000000     24.000000
  0.111111  0.027778  0.000000     24.000000
  0.138889  0.027778  0.000000     24.000000
  0.166667  0.027778  0.000000     24.000000
  0.194444  0.027778  0.000000     24.000000
  0.222222  0.027778  0.000000     24.000000
  0.250000  0.027778  0.000000     24.000000
  0.277778  0.027778  0.000000     24.000000
  0.305556  0.027778  0.000000     24.000000
  0.333333  0.027778  0.000000     24.000000
  0.361111  0.027778  0.000000     24.000000
  0.388889  0.027778  0.000000     24.000000
  0.416667  0.027778  0.000000     24.000000
  0.444444  0.027778  0.000000     24.000000
  0.472222  0.027778  0.000000     24.000000
  0.500000  0.027778  0.000000     12.000000
  0.055556  0.055556  0.000000     12.000000
  0.083333  0.055556  0.000000     24.000000
  0.111111  0.055556  0.000000     24.000000
  0.138889  0.055556  0.000000     24.000000
  0.166667  0.055556  0.000000     24.000000
  0.194444  0.055556  0.000000     24.000000
  0.222222  0.055556  0.000000     24.000000
  0.250000  0.055556  0.000000     24.000000
  0.277778  0.055556  0.000000     24.000000
  0.305556  0.055556  0.000000     24.000000
  0.333333  0.055556  0.000000     24.000000
  0.361111  0.055556  0.000000     24.000000
  0.388889  0.055556  0.000000     24.000000
  0.416667  0.055556  0.000000     24.000000
  0.444444  0.055556  0.000000     24.000000
  0.472222  0.055556  0.000000     24.000000
  0.500000  0.055556  0.000000     12.000000
  0.083333  0.083333  0.000000     12.000000
  0.111111  0.083333  0.000000     24.000000
  0.138889  0.083333  0.000000     24.000000
  0.166667  0.083333  0.000000     24.000000
  0.194444  0.083333  0.000000     24.000000
  0.222222  0.083333  0.000000     24.000000
[...]
  0.472222  0.444444  0.416667     48.000000
  0.500000  0.444444  0.416667     24.000000
  0.472222  0.472222  0.416667     24.000000
  0.500000  0.472222  0.416667     24.000000
  0.500000  0.500000  0.416667      6.000000
  0.444444  0.444444  0.444444      8.000000
  0.472222  0.444444  0.444444     24.000000
  0.500000  0.444444  0.444444     12.000000
  0.472222  0.472222  0.444444     24.000000
  0.500000  0.472222  0.444444     24.000000
  0.500000  0.500000  0.444444      6.000000
  0.472222  0.472222  0.472222      8.000000
  0.500000  0.472222  0.472222     12.000000
  0.500000  0.500000  0.472222      6.000000
  0.500000  0.500000  0.500000      1.000000

 Following cartesian coordinates:
            Coordinates               Weight
  0.000000  0.000000  0.000000      1.000000
  0.007638  0.000000  0.000000      6.000000
  0.015276  0.000000  0.000000      6.000000
  0.022914  0.000000  0.000000      6.000000
  0.030552  0.000000  0.000000      6.000000
  0.038190  0.000000  0.000000      6.000000
  0.045828  0.000000  0.000000      6.000000
  0.053465  0.000000  0.000000      6.000000
  0.061103  0.000000  0.000000      6.000000
  0.068741  0.000000  0.000000      6.000000
  0.076379  0.000000  0.000000      6.000000
  0.084017  0.000000  0.000000      6.000000
  0.091655  0.000000  0.000000      6.000000
  0.099293  0.000000  0.000000      6.000000
  0.106931  0.000000  0.000000      6.000000
  0.114569  0.000000  0.000000      6.000000
  0.122207  0.000000  0.000000      6.000000
  0.129845  0.000000  0.000000      6.000000
  0.137483  0.000000  0.000000      3.000000
  0.007638  0.007638  0.000000     12.000000
  0.015276  0.007638  0.000000     24.000000
  0.022914  0.007638  0.000000     24.000000
  0.030552  0.007638  0.000000     24.000000
  0.038190  0.007638  0.000000     24.000000
  0.045828  0.007638  0.000000     24.000000
  0.053465  0.007638  0.000000     24.000000
  0.061103  0.007638  0.000000     24.000000
  0.068741  0.007638  0.000000     24.000000
  0.076379  0.007638  0.000000     24.000000
  0.084017  0.007638  0.000000     24.000000
  0.091655  0.007638  0.000000     24.000000
  0.099293  0.007638  0.000000     24.000000
  0.106931  0.007638  0.000000     24.000000
  0.114569  0.007638  0.000000     24.000000
  0.122207  0.007638  0.000000     24.000000
  0.129845  0.007638  0.000000     24.000000
  0.137483  0.007638  0.000000     12.000000
  0.015276  0.015276  0.000000     12.000000
  0.022914  0.015276  0.000000     24.000000
  0.030552  0.015276  0.000000     24.000000
  0.038190  0.015276  0.000000     24.000000
  0.045828  0.015276  0.000000     24.000000
  0.053465  0.015276  0.000000     24.000000
  0.061103  0.015276  0.000000     24.000000
  0.068741  0.015276  0.000000     24.000000
  0.076379  0.015276  0.000000     24.000000
  0.084017  0.015276  0.000000     24.000000
  0.091655  0.015276  0.000000     24.000000
  0.099293  0.015276  0.000000     24.000000
  0.106931  0.015276  0.000000     24.000000
  0.114569  0.015276  0.000000     24.000000
  0.122207  0.015276  0.000000     24.000000
  0.129845  0.015276  0.000000     24.000000
  0.137483  0.015276  0.000000     12.000000
  0.022914  0.022914  0.000000     12.000000
  0.030552  0.022914  0.000000     24.000000
  0.038190  0.022914  0.000000     24.000000
  0.045828  0.022914  0.000000     24.000000
  0.053465  0.022914  0.000000     24.000000
  0.061103  0.022914  0.000000     24.000000
[...]
  0.129845  0.122207  0.114569     48.000000
  0.137483  0.122207  0.114569     24.000000
  0.129845  0.129845  0.114569     24.000000
  0.137483  0.129845  0.114569     24.000000
  0.137483  0.137483  0.114569      6.000000
  0.122207  0.122207  0.122207      8.000000
  0.129845  0.122207  0.122207     24.000000
  0.137483  0.122207  0.122207     12.000000
  0.129845  0.129845  0.122207     24.000000
  0.137483  0.129845  0.122207     24.000000
  0.137483  0.137483  0.122207      6.000000
  0.129845  0.129845  0.129845      8.000000
  0.137483  0.129845  0.129845     12.000000
  0.137483  0.137483  0.129845      6.000000
  0.137483  0.137483  0.137483      1.000000

 I would recommend the setting:
   dimension x,y,z NGX =    40 NGY =   40 NGZ =   40
 SYSTEM =  unknown system
 POSCAR =  Cu

 Startparameter for this run:
   NWRITE =      2    write-flag & timer
   PREC   = accura    medium, high low
   ISTART =      0    job   : 0-new  1-cont  2-samecut
   ICHARG =      2    charge: 1-file 2-atom 10-const
   ISPIN  =      1    spin polarized calculation?
   LNONCOLLINEAR =      F non collinear calculations
   LSORBIT =      F    spin-orbit coupling
   INIWAV =      1    electr: 0-lowe 1-rand  2-diag
   LASPH  =      F    aspherical Exc in radial PAW
   METAGGA=      F    non-selfconsistent MetaGGA calc.

 Electronic Relaxation 1
   ENCUT  = 1000.0 eV  73.50 Ry    8.57 a.u.   9.94  9.94  9.94*2*pi/ulx,y,z
   ENINI  = 1000.0     initial cutoff
   ENAUG  =  516.5 eV  augmentation charge cutoff
   NELM   =     60;   NELMIN=  2; NELMDL=  0     # of ELM steps
   EDIFF  = 0.1E-07   stopping-criterion for ELM
   LREAL  =      F    real-space projection
   LCOMPAT=      F    compatible to vasp.4.4
   LREAL_COMPAT= F    compatible to vasp.4.5.1-3
   GGA_COMPAT  = T    GGA compatible to vasp.4.4-vasp.4.6
   LMAXPAW     = -100 max onsite density
   LMAXMIX     =    2 max onsite mixed and CHGCAR
[...]
 k-point 25 :  0.16670.02780.0000  plane waves:   4087
 k-point 26 :  0.19440.02780.0000  plane waves:   4089
 k-point 27 :  0.22220.02780.0000  plane waves:   4091
 k-point 28 :  0.25000.02780.0000  plane waves:   4101
 k-point 29 :  0.27780.02780.0000  plane waves:   4099
 k-point 30 :  0.30560.02780.0000  plane waves:   4098
 k-point 31 :  0.33330.02780.0000  plane waves:   4106
 k-point 32 :  0.36110.02780.0000  plane waves:   4106
 k-point 33 :  0.38890.02780.0000  plane waves:   4100
 k-point 34 :  0.41670.02780.0000  plane waves:   4109
 k-point 35 :  0.44440.02780.0000  plane waves:   4106
 k-point 36 :  0.47220.02780.0000  plane waves:   4115
 k-point 37 :  0.50000.02780.0000  plane waves:   4120
 k-point 38 :  0.05560.05560.0000  plane waves:   4074
 k-point 39 :  0.08330.05560.0000  plane waves:   4072
 k-point 40 :  0.11110.05560.0000  plane waves:   4082
 k-point 41 :  0.13890.05560.0000  plane waves:   4082
 k-point 42 :  0.16670.05560.0000  plane waves:   4084
 k-point 43 :  0.19440.05560.0000  plane waves:   4095
 k-point 44 :  0.22220.05560.0000  plane waves:   4095
 k-point 45 :  0.25000.05560.0000  plane waves:   4093
 k-point 46 :  0.27780.05560.0000  plane waves:   4095
 k-point 47 :  0.30560.05560.0000  plane waves:   4095
 k-point 48 :  0.33330.05560.0000  plane waves:   4101
 k-point 49 :  0.36110.05560.0000  plane waves:   4100
 k-point 50 :  0.38890.05560.0000  plane waves:   4101
 k-point 51 :  0.41670.05560.0000  plane waves:   4103
 k-point 52 :  0.44440.05560.0000  plane waves:   4110
 k-point 53 :  0.47220.05560.0000  plane waves:   4111
 k-point 54 :  0.50000.05560.0000  plane waves:   4108
 k-point 55 :  0.08330.08330.0000  plane waves:   4060
 k-point 56 :  0.11110.08330.0000  plane waves:   4079
 k-point 57 :  0.13890.08330.0000  plane waves:   4080
 k-point 58 :  0.16670.08330.0000  plane waves:   4095
 k-point 59 :  0.19440.08330.0000  plane waves:   4099
 k-point 60 :  0.22220.08330.0000  plane waves:   4098
[...]
 k-point 85 :  0.50000.11110.0000  plane waves:   4120
 k-point 86 :  0.13890.13890.0000  plane waves:   4082
 k-point 87 :  0.16670.13890.0000  plane waves:   4093
 k-point 88 :  0.19440.13890.0000  plane waves:   4101
 k-point 89 :  0.22220.13890.0000  plane waves:   4101
 k-point 90 :  0.25000.13890.0000  plane waves:   4101
 k-point 91 :  0.27780.13890.0000  plane waves:   4105
 k-point 92 :  0.30560.13890.0000  plane waves:   4113
 k-point 93 :  0.33330.13890.0000  plane waves:   4116
 k-point 94 :  0.36110.13890.0000  plane waves:   4114
 k-point 95 :  0.38890.13890.0000  plane waves:   4122
 k-point 96 :  0.41670.13890.0000  plane waves:   4120
 k-point 97 :  0.44440.13890.0000  plane waves:   4119
 k-point 98 :  0.47220.13890.0000  plane waves:   4115
 k-point 99 :  0.50000.13890.0000  plane waves:   4118
 k-point ** :  0.16670.16670.0000  plane waves:   4098
 k-point ** :  0.19440.16670.0000  plane waves:   4101
 k-point ** :  0.22220.16670.0000  plane waves:   4101
 k-point ** :  0.25000.16670.0000  plane waves:   4104
 k-point ** :  0.27780.16670.0000  plane waves:   4106
 k-point ** :  0.30560.16670.0000  plane waves:   4113
 k-point ** :  0.33330.16670.0000  plane waves:   4108
 k-point ** :  0.36110.16670.0000  plane waves:   4121
 k-point ** :  0.38890.16670.0000  plane waves:   4121
 k-point ** :  0.41670.16670.0000  plane waves:   4121
 k-point ** :  0.44440.16670.0000  plane waves:   4119
 k-point ** :  0.47220.16670.0000  plane waves:   4116
 k-point ** :  0.50000.16670.0000  plane waves:   4112
 k-point ** :  0.19440.19440.0000  plane waves:   4102
 k-point ** :  0.22220.19440.0000  plane waves:   4100
 k-point ** :  0.25000.19440.0000  plane waves:   4106
 k-point ** :  0.27780.19440.0000  plane waves:   4108
 k-point ** :  0.30560.19440.0000  plane waves:   4110
 k-point ** :  0.33330.19440.0000  plane waves:   4108
 k-point ** :  0.36110.19440.0000  plane waves:   4118
 k-point ** :  0.38890.19440.0000  plane waves:   4119
 k-point ** :  0.41670.19440.0000  plane waves:   4116
 k-point ** :  0.44440.19440.0000  plane waves:   4120
 k-point ** :  0.47220.19440.0000  plane waves:   4119
 k-point ** :  0.50000.19440.0000  plane waves:   4114
 k-point ** :  0.22220.22220.0000  plane waves:   4088
 k-point ** :  0.25000.22220.0000  plane waves:   4093
 k-point ** :  0.27780.22220.0000  plane waves:   4106
 k-point ** :  0.30560.22220.0000  plane waves:   4110
 k-point ** :  0.33330.22220.0000  plane waves:   4107
 k-point ** :  0.36110.22220.0000  plane waves:   4118
 k-point ** :  0.38890.22220.0000  plane waves:   4124
 k-point ** :  0.41670.22220.0000  plane waves:   4120
 k-point ** :  0.44440.22220.0000  plane waves:   4126
 k-point ** :  0.47220.22220.0000  plane waves:   4124
 k-point ** :  0.50000.22220.0000  plane waves:   4110
 k-point ** :  0.25000.25000.0000  plane waves:   4096
 k-point ** :  0.27780.25000.0000  plane waves:   4102
 k-point ** :  0.30560.25000.0000  plane waves:   4106
 k-point ** :  0.33330.25000.0000  plane waves:   4113
 k-point ** :  0.36110.25000.0000  plane waves:   4119
 k-point ** :  0.38890.25000.0000  plane waves:   4126
 k-point ** :  0.41670.25000.0000  plane waves:   4127
 k-point ** :  0.44440.25000.0000  plane waves:   4128
 k-point ** :  0.47220.25000.0000  plane waves:   4118
 k-point ** :  0.50000.25000.0000  plane waves:   4094
 k-point ** :  0.27780.27780.0000  plane waves:   4110
 k-point ** :  0.30560.27780.0000  plane waves:   4113
 k-point ** :  0.33330.27780.0000  plane waves:   4119
 k-point ** :  0.36110.27780.0000  plane waves:   4125
 k-point ** :  0.38890.27780.0000  plane waves:   4128
 k-point ** :  0.41670.27780.0000  plane waves:   4126
 k-point ** :  0.44440.27780.0000  plane waves:   4125
 k-point ** :  0.47220.27780.0000  plane waves:   4121
 k-point ** :  0.50000.27780.0000  plane waves:   4118
 k-point ** :  0.30560.30560.0000  plane waves:   4120
 k-point ** :  0.33330.30560.0000  plane waves:   4122
 k-point ** :  0.36110.30560.0000  plane waves:   4125
 k-point ** :  0.38890.30560.0000  plane waves:   4120
 k-point ** :  0.41670.30560.0000  plane waves:   4125
[...]
 k-point ** :  0.47220.44440.4167  plane waves:   4132
 k-point ** :  0.50000.44440.4167  plane waves:   4134
 k-point ** :  0.47220.47220.4167  plane waves:   4132
 k-point ** :  0.50000.47220.4167  plane waves:   4128
 k-point ** :  0.50000.50000.4167  plane waves:   4128
 k-point ** :  0.44440.44440.4444  plane waves:   4128
 k-point ** :  0.47220.44440.4444  plane waves:   4130
 k-point ** :  0.50000.44440.4444  plane waves:   4128
 k-point ** :  0.47220.47220.4444  plane waves:   4132
 k-point ** :  0.50000.47220.4444  plane waves:   4136
 k-point ** :  0.50000.50000.4444  plane waves:   4128
 k-point ** :  0.47220.47220.4722  plane waves:   4134
 k-point ** :  0.50000.47220.4722  plane waves:   4128
 k-point ** :  0.50000.50000.4722  plane waves:   4136
 k-point ** :  0.50000.50000.5000  plane waves:   4224

 maximum and minimum number of plane-waves per node :   4224  4060

 maximum number of plane-waves:   4224
 maximal index in each direction:
   IXMAX=  9   IYMAX=  9   IZMAX=  9
   IXMIN=-10   IYMIN=-10   IZMIN=-10

 NGX is ok and might be reduce to  40
 NGY is ok and might be reduce to  40
 NGZ is ok and might be reduce to  40

 parallel 3dFFT wavefunction:
    minimum data exchange during FFTs selected (reduces bandwidth)
 parallel 3dFFT charge:
    minimum data exchange during FFTs selected (reduces bandwidth)

Broyden mixing: mesh for mixing (old mesh)
   NGX = 19   NGY = 19   NGZ = 19
  (NGX  = 80   NGY  = 80   NGZ  = 80)
 gives a total of   6859 points
 initial charge density was supplied:
 charge density of overlapping atoms calculated
 number of electron   44.0000000 magnetization
 keeping initial charge density in first step

 Maximum index for augmentation-charges        38003 (set IRDMAX)

 First call to EWALD:  gamma=   0.460
 Maximum number of real-space cells 3x 3x 3
 Maximum number of reciprocal cells 3x 3x 3

----------------------------------------- Iteration    1(   1)  ---------------------------------------

 eigenvalue-minimisations  : 86048
 total energy-change (2. order) : 0.3552507E+03  (-0.3093916E+04)
 number of electron   44.0000000 magnetization
 augmentation part    44.0000000 magnetization

 Free energy of the ion-electron system (eV)
  alpha Z        PSCENC =       356.81151756
  Ewald energy   TEWEN  =     -4144.47517478
  -1/2 Hartree   DENC   =     -1454.73898010
  -V(xc)+E(xc)   XCENC  =       173.65320542
  PAW double counting   =      4328.20916945    -4904.30802700
  entropy T*S    EENTRO =        -0.00008021
  eigenvalues    EBANDS =       436.17981661
  atomic energy  EATOM  =      5563.91924406
  free energy    TOTEN  =       355.25069101 eV

  energy without entropy =      355.25077121  energy(sigma->0) =      355.25073111

[...]

 eigenvalue-minimisations  : 85184
 total energy-change (2. order) :-0.3457202E+03  (-0.3298867E+03)
 number of electron   44.0000000 magnetization
 augmentation part    44.0000000 magnetization

[...]

 Broyden mixing:
  rms(total) = 0.13263E+01    rms(broyden)= 0.13263E+01
  rms(prec ) = 0.31142E+01
  weight for this iteration     100.00

[...]

 eigenvalues of (default mixing * dielectric matrix)
  average eigenvalue GAMMA=   0.6283
  0.6283

[...]

 eigenvalue-minimisations  :103088
 total energy-change (2. order) :-0.3021856E-05  (-0.1139340E-07)
 number of electron   44.0000001 magnetization
 augmentation part    28.9330379 magnetization

[...]

 eigenvalue-minimisations  : 78104
 total energy-change (2. order) :-0.7617755E-06  (-0.3273195E-08)
 number of electron   44.0000001 magnetization
 augmentation part    28.9331267 magnetization

[...]

 Broyden mixing:
  rms(total) = 0.14010E-05    rms(broyden)= 0.14009E-05
  rms(prec ) = 0.29909E-05
  weight for this iteration     100.00

 eigenvalues of (default mixing * dielectric matrix)
  average eigenvalue GAMMA=   1.6096
  2.6792  2.6792  2.4373  2.4373  0.6530  0.9336  0.9565  1.0334  1.0334  1.2535

[...]

----------------------------------------- Iteration    1(  16)  ---------------------------------------

 eigenvalue-minimisations  : 51568
 total energy-change (2. order) : 0.7442395E-08  (-0.1065277E-11)
 number of electron   44.0000001 magnetization
 augmentation part    28.9331349 magnetization

 Free energy of the ion-electron system (eV)
  alpha Z        PSCENC =       356.81151756
  Ewald energy   TEWEN  =     -4144.47517478
  -1/2 Hartree   DENC   =     -1373.59839706
  -V(xc)+E(xc)   XCENC  =       169.79969425
  PAW double counting   =      4303.45439458    -4879.83700778
  entropy T*S    EENTRO =        -0.00007677
  eigenvalues    EBANDS =       -10.41868269
  atomic energy  EATOM  =      5563.91924406
  free energy    TOTEN  =       -14.34448862 eV

  energy without entropy =      -14.34441185  energy(sigma->0) =      -14.34445023

 average (electrostatic) potential at core
  the test charge radii are     1.0053
  (the norm of the test charge is              1.0000)
       1 -41.0274       2 -41.0274       3 -41.0274       4 -41.0274

 E-fermi :   2.3042     XC(G=0): -11.7100     alpha+bet : -7.9414
   add alpha+bet to get absolut eigen values

 k-point   1 :       0.0000    0.0000    0.0000
  band No.  band energies     occupation
      1      -5.6814      2.00000
      2      -1.5935      2.00000
      3      -1.5935      2.00000
      4      -1.5935      2.00000
      5      -1.2529      2.00000
      6      -1.2529      2.00000
      7      -1.2529      2.00000
      8      -0.2261      2.00000
      9      -0.2261      2.00000
     10      -0.2261      2.00000
     11       0.3867      2.00000
     12       0.3867      2.00000
     13       0.7954      2.00000
     14       0.7954      2.00000
     15       0.7954      2.00000
     16       0.9096      2.00000
     17       0.9096      2.00000
     18       0.9096      2.00000
     19       0.9096      2.00000
     20       0.9096      2.00000
     21       0.9096      2.00000
     22       3.9467      0.00000
     23       3.9467      0.00000
     24       3.9467      0.00000
     25       8.1574      0.00000
     26       8.1574      0.00000
     27       8.1574      0.00000
     28      14.0175      0.00000
     29      14.0175      0.00000
     30      14.0175      0.00000
     31      14.0175      0.00000
     32      14.0175      0.00000

[...]

 k-point *** :       0.5000    0.5000    0.5000
  band No.  band energies     occupation
      1      -1.8229      2.00000
      2      -1.8229      2.00000
      3      -1.8229      2.00000
      4      -1.8229      2.00000
      5      -0.2436      2.00000
      6      -0.2436      2.00000
      7      -0.2436      2.00000
      8      -0.2436      2.00000
      9      -0.2436      2.00000
     10      -0.2436      2.00000
     11      -0.2436      2.00000
     12      -0.2436      2.00000
     13       0.8062      2.00000
     14       0.8062      2.00000
     15       0.8062      2.00000
     16       0.8062      2.00000
     17       0.8062      2.00000
     18       0.8062      2.00000
     19       0.8062      2.00000
     20       0.8062      2.00000
     21       1.8282      2.00000
     22       1.8282      2.00000
     23       1.8282      2.00000
     24       1.8282      2.00000
     25       5.1760      0.00000
     26       5.1760      0.00000
     27       5.1760      0.00000
     28       5.1760      0.00000
     29      21.6182      0.00000
     30      21.6182      0.00000
     31      21.6182      0.00000
     32      21.6182      0.00000

 soft charge-density along one line, spin component           1
         0         1         2         3         4         5         6         7         8         9
 total charge-density along one line

------------------------ aborting loop because EDIFF is reached ----------------------------------------

  FREE ENERGIE OF THE ION-ELECTRON SYSTEM (eV)
  free  energy   TOTEN  =       -14.344489 eV

  energy  without entropy=      -14.344412  energy(sigma->0) =      -14.344450

  FORCE on cell =-STRESS in cart. coord.  units (eV/reduce length):
  Direction    X        Y        Z        XY       YZ       ZX
  Alpha Z    356.81    356.81    356.81
  Ewald    -1381.49  -1381.49  -1381.49      0.00      0.00     -0.00
  Hartree    457.87    457.87    457.87     -0.00     -0.00     -0.00
  E(xc)     -249.41   -249.41   -249.41     -0.00      0.00     -0.00
  Local      428.29    428.29    428.29      0.00     -0.00     -0.00
  n-local   -148.80   -154.40   -155.35      0.32      1.85      0.66
  augment    224.91    224.91    224.91     -0.00     -0.00     -0.00
  Kinetic    317.70    309.38    304.08     -2.84      0.32     -1.16
  Total       -5.50     -5.50     -5.50      0.00      0.00      0.00
  in kB     -153.73   -153.73   -153.73      0.00      0.00      0.00

 VOLUME and BASIS-vectors are now :
  energy-cutoff  :     1000.00
  volume of cell :       57.29
      direct lattice vectors                 reciprocal lattice vectors
     3.855033679  0.000000000  0.000000000     0.259401106  0.000000000  0.000000000
     0.000000000  3.855033679  0.000000000     0.000000000  0.259401106  0.000000000
     0.000000000  0.000000000  3.855033679     0.000000000  0.000000000  0.259401106

  length of vectors
     3.855033679  3.855033679  3.855033679     0.259401106  0.259401106  0.259401106

 FORCES acting on ions
    electron-ion (+dipol)            ewald-force                    non-local-force                 convergence-correction
   0.333E-14 0.127E-13 0.884E-14   0.104E-15 -.131E-13 -.660E-14   0.517E-25 0.258E-25 0.209E-24   -.138E-12 -.116E-12 -.125E-12
   -.179E-12 -.766E-12 -.436E-11   0.234E-13 -.984E-14 -.650E-14   0.517E-25 0.194E-25 0.000E+00   0.650E-13 0.572E-13 -.102E-12
   -.178E-12 0.982E-14 -.490E-11   -.122E-13 0.111E-13 0.728E-14   0.129E-24 -.452E-25 -.218E-25   0.528E-13 -.117E-12 0.726E-13
   0.326E-14 -.168E-12 -.179E-12   -.875E-14 0.144E-13 0.738E-14   0.258E-25 -.388E-25 0.775E-25   -.153E-12 0.646E-13 0.648E-13
   -.350E-12 -.911E-12 -.943E-11   0.251E-14 0.257E-14 0.156E-14   0.258E-24 -.388E-25 0.265E-24   -.173E-12 -.111E-12 -.896E-13

 POSITION                                       TOTAL-FORCE (eV/Angst)
      0.00000      0.00000      0.00000        -0.000000      0.000000      0.000000
      1.92752      1.92752      0.00000        -0.000000      0.000000      0.000000
      1.92752      0.00000      1.92752        -0.000000      0.000000      0.000000
      0.00000      1.92752      1.92752        -0.000000      0.000000      0.000000
    total drift:                               -0.000000     -0.000000     -0.000000

 mean value of Nose-termostat <S>:     1.000 mean value of <T> :     0.000
 mean temperature <T/S>/<1/S>  :     0.000