 vasp.4.6.28 25Jul05 complex
 executed on             LinuxIFC date 2016.07.06  18:27:29

 INCAR:
 POTCAR:   PAW_PBE Cu 05Jan2001
 POTCAR:   PAW_PBE Cu 05Jan2001
   VRHFIN =Cu: d10 p1

   TITEL  = PAW_PBE Cu 05Jan2001
   POMASS =   63.546; ZVAL   =   11.000    mass and valenz
   ENMAX  =  273.214; ENMIN  =  204.910 eV
   QCUT   =   -4.481; QGAM   =    8.962    optimization parameters

   Description
     l     E      TYP  RCUT    TYP  RCUT
     2   .000     23  2.300
     2   .000     23  2.300
     0   .000     23  2.300
     0   .000     23  2.300
     1  -.200     23  2.300
     1   .000     23  2.300
     3   .000      7   .000

 PAW_PBE Cu 05Jan2001                   :

 POSCAR: Cu
  positions in direct lattice
  velocities in cartesian coordinates

 ion  position               nearest neighbor table
   1  0.000  0.000  0.000-   2 2.65   3 2.65   4 2.65   3 2.65   4 2.65   2 2.65   4 2.65   4 2.65
                             2 2.65   3 2.65   3 2.65   2 2.65
   2  0.500  0.500  0.000-   1 2.65   3 2.65   4 2.65   3 2.65   4 2.65   1 2.65   3 2.65   3 2.65
                             1 2.65   4 2.65   4 2.65   1 2.65
   3  0.500  0.000  0.500-   1 2.65   2 2.65   4 2.65   1 2.65   2 2.65   2 2.65   4 2.65   2 2.65
                             1 2.65   4 2.65   1 2.65   4 2.65
   4  0.000  0.500  0.500-   1 2.65   2 2.65   3 2.65   1 2.65   2 2.65   1 2.65   3 2.65   1 2.65
                             2 2.65   3 2.65   2 2.65   3 2.65

  LATTYP: Found a simple cubic cell.
 ALAT       =     3.7455082861

  Lattice vectors:

 A1 = (   3.7455082861,   0.0000000000,   0.0000000000)
 A2 = (   0.0000000000,   3.7455082861,   0.0000000000)
 A3 = (   0.0000000000,   0.0000000000,   3.7455082861)
 Subroutine PRICEL returns following result:

  LATTYP: Found a face centered cubic cell.
 ALAT       =     3.7455082861

  Lattice vectors:

 A1 = (   1.8727541430,   1.8727541430,  -0.0000000000)
 A2 = (   1.8727541430,   0.0000000000,  -1.8727541430)
 A3 = (   0.0000000000,   1.8727541430,  -1.8727541430)

   4 primitive cells build up your supercell.

Analysis of symmetry for initial positions (statically):

 Routine SETGRP: Setting up the symmetry group for a
 simple cubic supercell.

 Subroutine GETGRP returns: Found 48 space group operations
 (whereof 48 operations were pure point group operations)
 out of a pool of 48 trial point group operations.

The static configuration has the point symmetry O_h .

Analysis of symmetry for dynamics (positions and initial velocities):

 Subroutine DYNSYM returns: Found 48 space group operations
 (whereof 48 operations were pure point group operations)
 out of a pool of 48 trial space group operations
 (whereof 48 operations were pure point group operations)
 and found also     4 'primitive' translations

The dynamic configuration has the point symmetry O_h .

 KPOINTS: Automatic mesh

Automatic generation of k-mesh.
 generate k-points for:  13  13  13

 Subroutine IBZKPT returns following result:

 Found     84 irreducible k-points:

 Following reciprocal coordinates:
            Coordinates               Weight
  0.000000  0.000000  0.000000      1.000000
  0.076923  0.000000  0.000000      6.000000
  0.153846  0.000000  0.000000      6.000000
  0.230769  0.000000  0.000000      6.000000
  0.307692  0.000000  0.000000      6.000000
  0.384615  0.000000  0.000000      6.000000
  0.461538  0.000000  0.000000      6.000000
  0.076923  0.076923  0.000000     12.000000
  0.153846  0.076923  0.000000     24.000000
  0.230769  0.076923  0.000000     24.000000
  0.307692  0.076923  0.000000     24.000000
  0.384615  0.076923  0.000000     24.000000
  0.461538  0.076923  0.000000     24.000000
  0.153846  0.153846  0.000000     12.000000
  0.230769  0.153846  0.000000     24.000000
  0.307692  0.153846  0.000000     24.000000
  0.384615  0.153846  0.000000     24.000000
  0.461538  0.153846  0.000000     24.000000
  0.230769  0.230769  0.000000     12.000000
  0.307692  0.230769  0.000000     24.000000
  0.384615  0.230769  0.000000     24.000000
  0.461538  0.230769  0.000000     24.000000
  0.307692  0.307692  0.000000     12.000000
  0.384615  0.307692  0.000000     24.000000
  0.461538  0.307692  0.000000     24.000000
  0.384615  0.384615  0.000000     12.000000
  0.461538  0.384615  0.000000     24.000000
  0.461538  0.461538  0.000000     12.000000
  0.076923  0.076923  0.076923      8.000000
  0.153846  0.076923  0.076923     24.000000
  0.230769  0.076923  0.076923     24.000000
  0.307692  0.076923  0.076923     24.000000
  0.384615  0.076923  0.076923     24.000000
  0.461538  0.076923  0.076923     24.000000
  0.153846  0.153846  0.076923     24.000000
  0.230769  0.153846  0.076923     48.000000
  0.307692  0.153846  0.076923     48.000000
  0.384615  0.153846  0.076923     48.000000
  0.461538  0.153846  0.076923     48.000000
  0.230769  0.230769  0.076923     24.000000
  0.307692  0.230769  0.076923     48.000000
  0.384615  0.230769  0.076923     48.000000
  0.461538  0.230769  0.076923     48.000000
  0.307692  0.307692  0.076923     24.000000
  0.384615  0.307692  0.076923     48.000000
  0.461538  0.307692  0.076923     48.000000
  0.384615  0.384615  0.076923     24.000000
  0.461538  0.384615  0.076923     48.000000
  0.461538  0.461538  0.076923     24.000000
  0.153846  0.153846  0.153846      8.000000
  0.230769  0.153846  0.153846     24.000000
  0.307692  0.153846  0.153846     24.000000
  0.384615  0.153846  0.153846     24.000000
  0.461538  0.153846  0.153846     24.000000
  0.230769  0.230769  0.153846     24.000000
  0.307692  0.230769  0.153846     48.000000
  0.384615  0.230769  0.153846     48.000000
  0.461538  0.230769  0.153846     48.000000
  0.307692  0.307692  0.153846     24.000000
  0.384615  0.307692  0.153846     48.000000
[...]
  0.384615  0.307692  0.230769     48.000000
  0.461538  0.307692  0.230769     48.000000
  0.384615  0.384615  0.230769     24.000000
  0.461538  0.384615  0.230769     48.000000
  0.461538  0.461538  0.230769     24.000000
  0.307692  0.307692  0.307692      8.000000
  0.384615  0.307692  0.307692     24.000000
  0.461538  0.307692  0.307692     24.000000
  0.384615  0.384615  0.307692     24.000000
  0.461538  0.384615  0.307692     48.000000
  0.461538  0.461538  0.307692     24.000000
  0.384615  0.384615  0.384615      8.000000
  0.461538  0.384615  0.384615     24.000000
  0.461538  0.461538  0.384615     24.000000
  0.461538  0.461538  0.461538      8.000000

 Following cartesian coordinates:
            Coordinates               Weight
  0.000000  0.000000  0.000000      1.000000
  0.021154  0.000000  0.000000      6.000000
  0.042307  0.000000  0.000000      6.000000
  0.063461  0.000000  0.000000      6.000000
  0.084614  0.000000  0.000000      6.000000
  0.105768  0.000000  0.000000      6.000000
  0.126921  0.000000  0.000000      6.000000
  0.021154  0.021154  0.000000     12.000000
  0.042307  0.021154  0.000000     24.000000
  0.063461  0.021154  0.000000     24.000000
  0.084614  0.021154  0.000000     24.000000
  0.105768  0.021154  0.000000     24.000000
  0.126921  0.021154  0.000000     24.000000
  0.042307  0.042307  0.000000     12.000000
  0.063461  0.042307  0.000000     24.000000
  0.084614  0.042307  0.000000     24.000000
  0.105768  0.042307  0.000000     24.000000
  0.126921  0.042307  0.000000     24.000000
  0.063461  0.063461  0.000000     12.000000
  0.084614  0.063461  0.000000     24.000000
  0.105768  0.063461  0.000000     24.000000
  0.126921  0.063461  0.000000     24.000000
  0.084614  0.084614  0.000000     12.000000
  0.105768  0.084614  0.000000     24.000000
  0.126921  0.084614  0.000000     24.000000
  0.105768  0.105768  0.000000     12.000000
  0.126921  0.105768  0.000000     24.000000
  0.126921  0.126921  0.000000     12.000000
  0.021154  0.021154  0.021154      8.000000
  0.042307  0.021154  0.021154     24.000000
  0.063461  0.021154  0.021154     24.000000
  0.084614  0.021154  0.021154     24.000000
  0.105768  0.021154  0.021154     24.000000
  0.126921  0.021154  0.021154     24.000000
  0.042307  0.042307  0.021154     24.000000
  0.063461  0.042307  0.021154     48.000000
  0.084614  0.042307  0.021154     48.000000
  0.105768  0.042307  0.021154     48.000000
  0.126921  0.042307  0.021154     48.000000
  0.063461  0.063461  0.021154     24.000000
  0.084614  0.063461  0.021154     48.000000
  0.105768  0.063461  0.021154     48.000000
  0.126921  0.063461  0.021154     48.000000
  0.084614  0.084614  0.021154     24.000000
  0.105768  0.084614  0.021154     48.000000
  0.126921  0.084614  0.021154     48.000000
  0.105768  0.105768  0.021154     24.000000
  0.126921  0.105768  0.021154     48.000000
  0.126921  0.126921  0.021154     24.000000
  0.042307  0.042307  0.042307      8.000000
  0.063461  0.042307  0.042307     24.000000
  0.084614  0.042307  0.042307     24.000000
  0.105768  0.042307  0.042307     24.000000
  0.126921  0.042307  0.042307     24.000000
  0.063461  0.063461  0.042307     24.000000
  0.084614  0.063461  0.042307     48.000000
  0.105768  0.063461  0.042307     48.000000
  0.126921  0.063461  0.042307     48.000000
  0.084614  0.084614  0.042307     24.000000
  0.105768  0.084614  0.042307     48.000000
[...]
  0.105768  0.084614  0.063461     48.000000
  0.126921  0.084614  0.063461     48.000000
  0.105768  0.105768  0.063461     24.000000
  0.126921  0.105768  0.063461     48.000000
  0.126921  0.126921  0.063461     24.000000
  0.084614  0.084614  0.084614      8.000000
  0.105768  0.084614  0.084614     24.000000
  0.126921  0.084614  0.084614     24.000000
  0.105768  0.105768  0.084614     24.000000
  0.126921  0.105768  0.084614     48.000000
  0.126921  0.126921  0.084614     24.000000
  0.105768  0.105768  0.105768      8.000000
  0.126921  0.105768  0.105768     24.000000
  0.126921  0.126921  0.105768     24.000000
  0.126921  0.126921  0.126921      8.000000

 I would recommend the setting:
   dimension x,y,z NGX =    27 NGY =   27 NGZ =   27
 SYSTEM =  unknown system
 POSCAR =  Cu

 Startparameter for this run:
   NWRITE =      2    write-flag & timer
   PREC   = accura    medium, high low
   ISTART =      0    job   : 0-new  1-cont  2-samecut
   ICHARG =      2    charge: 1-file 2-atom 10-const
   ISPIN  =      1    spin polarized calculation?
   LNONCOLLINEAR =      F non collinear calculations
   LSORBIT =      F    spin-orbit coupling
   INIWAV =      1    electr: 0-lowe 1-rand  2-diag
   LASPH  =      F    aspherical Exc in radial PAW
   METAGGA=      F    non-selfconsistent MetaGGA calc.

 Electronic Relaxation 1
   ENCUT  =  500.0 eV  36.75 Ry    6.06 a.u.   6.83  6.83  6.83*2*pi/ulx,y,z
   ENINI  =  500.0     initial cutoff
   ENAUG  =  516.5 eV  augmentation charge cutoff
   NELM   =     60;   NELMIN=  2; NELMDL=  0     # of ELM steps
   EDIFF  = 0.1E-07   stopping-criterion for ELM
   LREAL  =      F    real-space projection
   LCOMPAT=      F    compatible to vasp.4.4
   LREAL_COMPAT= F    compatible to vasp.4.5.1-3
   GGA_COMPAT  = T    GGA compatible to vasp.4.4-vasp.4.6
   LMAXPAW     = -100 max onsite density
   LMAXMIX     =    2 max onsite mixed and CHGCAR
[...]
   0.46153846  0.30769231  0.00000000       0.011
   0.38461538  0.38461538  0.00000000       0.005
   0.46153846  0.38461538  0.00000000       0.011
   0.46153846  0.46153846  0.00000000       0.005
   0.07692308  0.07692308  0.07692308       0.004
   0.15384615  0.07692308  0.07692308       0.011
   0.23076923  0.07692308  0.07692308       0.011
   0.30769231  0.07692308  0.07692308       0.011
   0.38461538  0.07692308  0.07692308       0.011
   0.46153846  0.07692308  0.07692308       0.011
   0.15384615  0.15384615  0.07692308       0.011
   0.23076923  0.15384615  0.07692308       0.022
   0.30769231  0.15384615  0.07692308       0.022
   0.38461538  0.15384615  0.07692308       0.022
   0.46153846  0.15384615  0.07692308       0.022
   0.23076923  0.23076923  0.07692308       0.011
   0.30769231  0.23076923  0.07692308       0.022
   0.38461538  0.23076923  0.07692308       0.022
   0.46153846  0.23076923  0.07692308       0.022
   0.30769231  0.30769231  0.07692308       0.011
   0.38461538  0.30769231  0.07692308       0.022
   0.46153846  0.30769231  0.07692308       0.022
   0.38461538  0.38461538  0.07692308       0.011
   0.46153846  0.38461538  0.07692308       0.022
   0.46153846  0.46153846  0.07692308       0.011
   0.15384615  0.15384615  0.15384615       0.004
   0.23076923  0.15384615  0.15384615       0.011
   0.30769231  0.15384615  0.15384615       0.011
   0.38461538  0.15384615  0.15384615       0.011
   0.46153846  0.15384615  0.15384615       0.011
   0.23076923  0.23076923  0.15384615       0.011
   0.30769231  0.23076923  0.15384615       0.022
   0.38461538  0.23076923  0.15384615       0.022
   0.46153846  0.23076923  0.15384615       0.022
   0.30769231  0.30769231  0.15384615       0.011
   0.38461538  0.30769231  0.15384615       0.022
[...]
   0.38461538  0.30769231  0.23076923       0.022
   0.46153846  0.30769231  0.23076923       0.022
   0.38461538  0.38461538  0.23076923       0.011
   0.46153846  0.38461538  0.23076923       0.022
   0.46153846  0.46153846  0.23076923       0.011
   0.30769231  0.30769231  0.30769231       0.004
   0.38461538  0.30769231  0.30769231       0.011
   0.46153846  0.30769231  0.30769231       0.011
   0.38461538  0.38461538  0.30769231       0.011
   0.46153846  0.38461538  0.30769231       0.022
   0.46153846  0.46153846  0.30769231       0.011
   0.38461538  0.38461538  0.38461538       0.004
   0.46153846  0.38461538  0.38461538       0.011
   0.46153846  0.46153846  0.38461538       0.011
   0.46153846  0.46153846  0.46153846       0.004

 position of ions in fractional coordinates (direct lattice)
   0.00000000  0.00000000  0.00000000
   0.50000000  0.50000000  0.00000000
   0.50000000  0.00000000  0.50000000
   0.00000000  0.50000000  0.50000000

 position of ions in cartesian coordinates  (Angst):
   0.00000000  0.00000000  0.00000000
   1.87275414  1.87275414  0.00000000
   1.87275414  0.00000000  1.87275414
   0.00000000  1.87275414  1.87275414

 k-point  1 :  0.00000.00000.0000  plane waves:   1357
 k-point  2 :  0.07690.00000.0000  plane waves:   1349
 k-point  3 :  0.15380.00000.0000  plane waves:   1337
 k-point  4 :  0.23080.00000.0000  plane waves:   1330
 k-point  5 :  0.30770.00000.0000  plane waves:   1322
 k-point  6 :  0.38460.00000.0000  plane waves:   1326
 k-point  7 :  0.46150.00000.0000  plane waves:   1334
 k-point  8 :  0.07690.07690.0000  plane waves:   1345
 k-point  9 :  0.15380.07690.0000  plane waves:   1329
 k-point 10 :  0.23080.07690.0000  plane waves:   1327
 k-point 11 :  0.30770.07690.0000  plane waves:   1328
 k-point 12 :  0.38460.07690.0000  plane waves:   1342
 k-point 13 :  0.46150.07690.0000  plane waves:   1332
 k-point 14 :  0.15380.15380.0000  plane waves:   1325
 k-point 15 :  0.23080.15380.0000  plane waves:   1327
 k-point 16 :  0.30770.15380.0000  plane waves:   1332
 k-point 17 :  0.38460.15380.0000  plane waves:   1339
 k-point 18 :  0.46150.15380.0000  plane waves:   1333
 k-point 19 :  0.23080.23080.0000  plane waves:   1332
 k-point 20 :  0.30770.23080.0000  plane waves:   1335
 k-point 21 :  0.38460.23080.0000  plane waves:   1333
 k-point 22 :  0.46150.23080.0000  plane waves:   1330
 k-point 23 :  0.30770.30770.0000  plane waves:   1328
 k-point 24 :  0.38460.30770.0000  plane waves:   1335
 k-point 25 :  0.46150.30770.0000  plane waves:   1334
 k-point 26 :  0.38460.38460.0000  plane waves:   1322
 k-point 27 :  0.46150.38460.0000  plane waves:   1330
 k-point 28 :  0.46150.46150.0000  plane waves:   1332
 k-point 29 :  0.07690.07690.0769  plane waves:   1340
 k-point 30 :  0.15380.07690.0769  plane waves:   1328
 k-point 31 :  0.23080.07690.0769  plane waves:   1328
 k-point 32 :  0.30770.07690.0769  plane waves:   1335
 k-point 33 :  0.38460.07690.0769  plane waves:   1337
 k-point 34 :  0.46150.07690.0769  plane waves:   1330
 k-point 35 :  0.15380.15380.0769  plane waves:   1331
 k-point 36 :  0.23080.15380.0769  plane waves:   1332
 k-point 37 :  0.30770.15380.0769  plane waves:   1332
 k-point 38 :  0.38460.15380.0769  plane waves:   1333
 k-point 39 :  0.46150.15380.0769  plane waves:   1332
 k-point 40 :  0.23080.23080.0769  plane waves:   1329
 k-point 41 :  0.30770.23080.0769  plane waves:   1332
 k-point 42 :  0.38460.23080.0769  plane waves:   1337
 k-point 43 :  0.46150.23080.0769  plane waves:   1331
 k-point 44 :  0.30770.30770.0769  plane waves:   1336
 k-point 45 :  0.38460.30770.0769  plane waves:   1338
 k-point 46 :  0.46150.30770.0769  plane waves:   1337
 k-point 47 :  0.38460.38460.0769  plane waves:   1328
 k-point 48 :  0.46150.38460.0769  plane waves:   1331
 k-point 49 :  0.46150.46150.0769  plane waves:   1334
 k-point 50 :  0.15380.15380.1538  plane waves:   1325
 k-point 51 :  0.23080.15380.1538  plane waves:   1331
 k-point 52 :  0.30770.15380.1538  plane waves:   1334
 k-point 53 :  0.38460.15380.1538  plane waves:   1334
 k-point 54 :  0.46150.15380.1538  plane waves:   1326
 k-point 55 :  0.23080.23080.1538  plane waves:   1335
 k-point 56 :  0.30770.23080.1538  plane waves:   1336
 k-point 57 :  0.38460.23080.1538  plane waves:   1335
 k-point 58 :  0.46150.23080.1538  plane waves:   1331
 k-point 59 :  0.30770.30770.1538  plane waves:   1329
 k-point 60 :  0.38460.30770.1538  plane waves:   1330
[...]
 k-point 70 :  0.38460.30770.2308  plane waves:   1330
 k-point 71 :  0.46150.30770.2308  plane waves:   1344
 k-point 72 :  0.38460.38460.2308  plane waves:   1340
 k-point 73 :  0.46150.38460.2308  plane waves:   1337
 k-point 74 :  0.46150.46150.2308  plane waves:   1342
 k-point 75 :  0.30770.30770.3077  plane waves:   1337
 k-point 76 :  0.38460.30770.3077  plane waves:   1334
 k-point 77 :  0.46150.30770.3077  plane waves:   1340
 k-point 78 :  0.38460.38460.3077  plane waves:   1341
 k-point 79 :  0.46150.38460.3077  plane waves:   1345
 k-point 80 :  0.46150.46150.3077  plane waves:   1343
 k-point 81 :  0.38460.38460.3846  plane waves:   1349
 k-point 82 :  0.46150.38460.3846  plane waves:   1341
 k-point 83 :  0.46150.46150.3846  plane waves:   1349
 k-point 84 :  0.46150.46150.4615  plane waves:   1352

 maximum and minimum number of plane-waves per node :   1357  1322

 maximum number of plane-waves:   1357
 maximal index in each direction:
   IXMAX=  6   IYMAX=  6   IZMAX=  6
   IXMIN= -7   IYMIN= -7   IZMIN= -7

 NGX is ok and might be reduce to  28
 NGY is ok and might be reduce to  28
 NGZ is ok and might be reduce to  28

 parallel 3dFFT wavefunction:
    minimum data exchange during FFTs selected (reduces bandwidth)
 parallel 3dFFT charge:
    minimum data exchange during FFTs selected (reduces bandwidth)

Broyden mixing: mesh for mixing (old mesh)
   NGX = 13   NGY = 13   NGZ = 13
  (NGX  = 56   NGY  = 56   NGZ  = 56)
 gives a total of   2197 points
 initial charge density was supplied:
 charge density of overlapping atoms calculated
 number of electron   44.0000000 magnetization
 keeping initial charge density in first step

 Maximum index for augmentation-charges        14187 (set IRDMAX)

 First call to EWALD:  gamma=   0.473
 Maximum number of real-space cells 3x 3x 3
 Maximum number of reciprocal cells 3x 3x 3

----------------------------------------- Iteration    1(   1)  ---------------------------------------

 eigenvalue-minimisations  :  5496
 total energy-change (2. order) : 0.2782063E+03  (-0.2027774E+04)
 number of electron   44.0000000 magnetization
 augmentation part    44.0000000 magnetization

 Free energy of the ion-electron system (eV)
  alpha Z        PSCENC =       389.03717917
  Ewald energy   TEWEN  =     -4265.66707610
  -1/2 Hartree   DENC   =     -1387.32969698
  -V(xc)+E(xc)   XCENC  =       174.47804341
  PAW double counting   =      4328.20916945    -4904.30802700
  entropy T*S    EENTRO =        -0.00018728
  eigenvalues    EBANDS =       379.87959385
  atomic energy  EATOM  =      5563.90732063
  free energy    TOTEN  =       278.20631913 eV

  energy without entropy =      278.20650641  energy(sigma->0) =      278.20641277

[...]

 eigenvalue-minimisations  :  5384
 total energy-change (2. order) :-0.2780394E+03  (-0.2638887E+03)
 number of electron   44.0000000 magnetization
 augmentation part    44.0000000 magnetization

[...]

 Broyden mixing:
  rms(total) = 0.13670E+01    rms(broyden)= 0.13669E+01
  rms(prec ) = 0.32412E+01
  weight for this iteration     100.00

[...]

 eigenvalues of (default mixing * dielectric matrix)
  average eigenvalue GAMMA=   0.6556
  0.6556

[...]

 eigenvalue-minimisations  :  3384
 total energy-change (2. order) :-0.2937941E-07  (-0.2035530E-09)
 number of electron   44.0000003 magnetization
 augmentation part    28.8546096 magnetization

[...]

 Broyden mixing:
  rms(total) = 0.86904E-06    rms(broyden)= 0.86890E-06
  rms(prec ) = 0.15847E-05
  weight for this iteration     100.00

 eigenvalues of (default mixing * dielectric matrix)
  average eigenvalue GAMMA=   1.6045
  2.8307  2.6193  2.6193  2.4943  0.6660  1.4703  0.9559  0.9559  1.0172  1.0106
  1.0106

[...]

----------------------------------------- Iteration    1(  17)  ---------------------------------------

 eigenvalue-minimisations  :  3096
 total energy-change (2. order) : 0.2792149E-09  (-0.9133098E-12)
 number of electron   44.0000003 magnetization
 augmentation part    28.8546080 magnetization

 Free energy of the ion-electron system (eV)
  alpha Z        PSCENC =       389.03717917
  Ewald energy   TEWEN  =     -4265.66707610
  -1/2 Hartree   DENC   =     -1302.77790684
  -V(xc)+E(xc)   XCENC  =       170.39317208
  PAW double counting   =      4337.34280717    -4914.77721872
  entropy T*S    EENTRO =        -0.00015051
  eigenvalues    EBANDS =         7.80996719
  atomic energy  EATOM  =      5563.90732063
  free energy    TOTEN  =       -14.73190594 eV

  energy without entropy =      -14.73175543  energy(sigma->0) =      -14.73183068

 average (electrostatic) potential at core
  the test charge radii are     1.0053
  (the norm of the test charge is              1.0000)
       1 -40.5611       2 -40.5611       3 -40.5611       4 -40.5611

 E-fermi :   2.9105     XC(G=0): -12.1891     alpha+bet : -8.6587
   add alpha+bet to get absolut eigen values

 k-point   1 :       0.0000    0.0000    0.0000
  band No.  band energies     occupation
      1      -5.6399      2.00000
      2      -1.3794      2.00000
      3      -1.3794      2.00000
      4      -1.3794      2.00000
      5      -0.9915      2.00000
      6      -0.9915      2.00000
      7      -0.9915      2.00000
      8       0.1862      2.00000
      9       0.1862      2.00000
     10       0.1862      2.00000
     11       0.8879      2.00000
     12       0.8879      2.00000
     13       1.3548      2.00000
     14       1.3548      2.00000
     15       1.3548      2.00000
     16       1.4855      2.00000
     17       1.4855      2.00000
     18       1.4855      2.00000
     19       1.4855      2.00000
     20       1.4855      2.00000
     21       1.4855      2.00000
     22       4.5167      0.00000
     23       4.5167      0.00000
     24       4.5167      0.00000
     25       9.3310      0.00000
     26       9.3310      0.00000
     27       9.3310      0.00000
     28      15.2764      0.00000
     29      15.2764      0.00000
     30      15.2764      0.00000
     31      15.2764      0.00000
     32      15.2764      0.00000

[...]

 k-point  84 :       0.4615    0.4615    0.4615
  band No.  band energies     occupation
      1      -1.6289      2.00000
      2      -1.5756      2.00000
      3      -1.5756      2.00000
      4      -1.5756      2.00000
      5       0.1491      2.00000
      6       0.1491      2.00000
      7       0.1491      2.00000
      8       0.1699      2.00000
      9       0.1699      2.00000
     10       0.1795      2.00000
     11       0.1795      2.00000
     12       0.1795      2.00000
     13       1.2075      2.00000
     14       1.2075      2.00000
     15       1.2075      2.00000
     16       1.3531      2.00000
     17       1.3531      2.00000
     18       1.3680      2.00000
     19       1.3680      2.00000
     20       1.3680      2.00000
     21       1.9467      2.00000
     22       2.3961      2.00000
     23       2.3961      2.00000
     24       2.3961      2.00000
     25       6.2390      0.00000
     26       6.2390      0.00000
     27       6.2390      0.00000
     28       6.5895      0.00000
     29      22.7547      0.00000
     30      22.7547      0.00000
     31      22.7547      0.00000
     32      23.0767      0.00000

 soft charge-density along one line, spin component           1
         0         1         2         3         4         5         6         7         8         9
 total charge-density along one line

------------------------ aborting loop because EDIFF is reached ----------------------------------------

  FREE ENERGIE OF THE ION-ELECTRON SYSTEM (eV)
  free  energy   TOTEN  =       -14.731906 eV

  energy  without entropy=      -14.731755  energy(sigma->0) =      -14.731831

  FORCE on cell =-STRESS in cart. coord.  units (eV/reduce length):
  Direction    X        Y        Z        XY       YZ       ZX
  Alpha Z    389.04    389.04    389.04
  Ewald    -1421.89  -1421.89  -1421.89      0.00     -0.00     -0.00
  Hartree    434.26    434.26    434.26     -0.00     -0.00     -0.00
  E(xc)     -249.91   -249.91   -249.91     -0.00     -0.00     -0.00
  Local      457.59    457.59    457.59     -0.00     -0.00      0.00
  n-local   -145.75   -151.39   -152.52      0.20      1.80      0.67
  augment    225.62    225.62    225.62     -0.00     -0.00     -0.00
  Kinetic    319.44    311.11    305.49     -3.26      0.15     -1.27
  Total       -3.17     -3.17     -3.17     -0.00      0.00      0.00
  in kB      -96.75    -96.75    -96.75     -0.00      0.00      0.00

 VOLUME and BASIS-vectors are now :
  energy-cutoff  :      500.00
  volume of cell :       52.55
      direct lattice vectors                 reciprocal lattice vectors
     3.745508286  0.000000000  0.000000000     0.266986460  0.000000000  0.000000000
     0.000000000  3.745508286  0.000000000     0.000000000  0.266986460  0.000000000
     0.000000000  0.000000000  3.745508286     0.000000000  0.000000000  0.266986460

  length of vectors
     3.745508286  3.745508286  3.745508286     0.266986460  0.266986460  0.266986460

 FORCES acting on ions
    electron-ion (+dipol)            ewald-force                    non-local-force                 convergence-correction
   -.477E-13 -.479E-13 -.470E-13   -.390E-14 0.423E-15 -.988E-14   -.600E-26 0.228E-26 0.131E-25   -.538E-13 -.133E-14 0.527E-15
   0.515E-12 0.365E-11 0.226E-11   0.138E-13 0.957E-14 -.977E-14   0.370E-26 -.663E-26 -.116E-25   -.436E-14 0.362E-14 -.503E-14
   0.511E-12 -.473E-13 0.766E-11   -.234E-14 -.940E-14 0.991E-14   -.954E-26 0.218E-25 -.137E-25   -.553E-15 0.754E-14 -.843E-13
   -.474E-13 0.513E-12 0.502E-12   -.559E-14 -.255E-15 0.100E-13   0.142E-25 -.395E-26 -.106E-25   -.554E-13 0.164E-14 -.842E-13
   0.931E-12 0.407E-11 0.104E-10   0.199E-14 0.335E-15 0.279E-15   0.236E-26 0.135E-25 -.228E-25   -.114E-12 0.115E-13 -.173E-12

 POSITION                                       TOTAL-FORCE (eV/Angst)
      0.00000      0.00000      0.00000        -0.000000     -0.000000     -0.000000
      1.87275      1.87275      0.00000         0.000000      0.000000     -0.000000
      1.87275      0.00000      1.87275         0.000000      0.000000      0.000000
      0.00000      1.87275      1.87275        -0.000000     -0.000000      0.000000
    total drift:                                0.000000      0.000000      0.000000

 mean value of Nose-termostat <S>:     1.000 mean value of <T> :     0.000
 mean temperature <T/S>/<1/S>  :     0.000