 vasp.4.6.28 25Jul05 complex
 executed on             LinuxIFC date 2016.12.21  11:38:19

 INCAR:
 POTCAR:   PAW_PBE Cu 05Jan2001
 POTCAR:   PAW_PBE Cu 05Jan2001
   VRHFIN =Cu: d10 p1

   TITEL  = PAW_PBE Cu 05Jan2001
   POMASS =   63.546; ZVAL   =   11.000    mass and valenz
   ENMAX  =  273.214; ENMIN  =  204.910 eV
   QCUT   =   -4.481; QGAM   =    8.962    optimization parameters

   Description
     l     E      TYP  RCUT    TYP  RCUT
     2   .000     23  2.300
     2   .000     23  2.300
     0   .000     23  2.300
     0   .000     23  2.300
     1  -.200     23  2.300
     1   .000     23  2.300
     3   .000      7   .000

 PAW_PBE Cu 05Jan2001                   :

 POSCAR: Cu
  positions in direct lattice
  velocities in cartesian coordinates

 ion  position               nearest neighbor table
   1  0.000  0.000  0.000-   2 2.57   3 2.57   4 2.57   3 2.57   4 2.57   2 2.57   4 2.57   4 2.57
                             2 2.57   3 2.57   3 2.57   2 2.57
   2  0.500  0.500  0.000-   1 2.57   3 2.57   4 2.57   3 2.57   4 2.57   1 2.57   3 2.57   3 2.57
                             1 2.57   4 2.57   4 2.57   1 2.57
   3  0.500  0.000  0.500-   1 2.57   2 2.57   4 2.57   1 2.57   2 2.57   2 2.57   4 2.57   2 2.57
                             1 2.57   4 2.57   1 2.57   4 2.57
   4  0.000  0.500  0.500-   1 2.57   2 2.57   3 2.57   1 2.57   2 2.57   1 2.57   3 2.57   1 2.57
                             2 2.57   3 2.57   2 2.57   3 2.57

  LATTYP: Found a simple cubic cell.
 ALAT       =     3.6364158117

  Lattice vectors:

 A1 = (   3.6364158117,   0.0000000000,   0.0000000000)
 A2 = (   0.0000000000,   3.6364158117,   0.0000000000)
 A3 = (   0.0000000000,   0.0000000000,   3.6364158117)
 Subroutine PRICEL returns following result:

  LATTYP: Found a face centered cubic cell.
 ALAT       =     3.6364158117

  Lattice vectors:

 A1 = (   1.8182079059,   1.8182079059,   0.0000000000)
 A2 = (   1.8182079059,   0.0000000000,  -1.8182079059)
 A3 = (   0.0000000000,   1.8182079059,  -1.8182079059)

   4 primitive cells build up your supercell.

Analysis of symmetry for initial positions (statically):

 Routine SETGRP: Setting up the symmetry group for a
 simple cubic supercell.

 Subroutine GETGRP returns: Found 48 space group operations
 (whereof 48 operations were pure point group operations)
 out of a pool of 48 trial point group operations.

The static configuration has the point symmetry O_h .

Analysis of symmetry for dynamics (positions and initial velocities):

 Subroutine DYNSYM returns: Found 48 space group operations
 (whereof 48 operations were pure point group operations)
 out of a pool of 48 trial space group operations
 (whereof 48 operations were pure point group operations)
 and found also     4 'primitive' translations

The dynamic configuration has the point symmetry O_h .

 KPOINTS: Automatic mesh

Automatic generation of k-mesh.

 Subroutine IBZKPT returns following result:

 Found     84 irreducible k-points:

 Following reciprocal coordinates:
            Coordinates               Weight
  0.000000  0.000000  0.000000      1.000000
  0.083333  0.000000  0.000000      6.000000
  0.166667  0.000000  0.000000      6.000000
  0.250000  0.000000  0.000000      6.000000
  0.333333  0.000000  0.000000      6.000000
  0.416667  0.000000  0.000000      6.000000
  0.500000  0.000000  0.000000      3.000000
  0.083333  0.083333  0.000000     12.000000
  0.166667  0.083333  0.000000     24.000000
  0.250000  0.083333  0.000000     24.000000
  0.333333  0.083333  0.000000     24.000000
  0.416667  0.083333  0.000000     24.000000
  0.500000  0.083333  0.000000     12.000000
  0.166667  0.166667  0.000000     12.000000
  0.250000  0.166667  0.000000     24.000000
  0.333333  0.166667  0.000000     24.000000
  0.416667  0.166667  0.000000     24.000000
  0.500000  0.166667  0.000000     12.000000
  0.250000  0.250000  0.000000     12.000000
  0.333333  0.250000  0.000000     24.000000
  0.416667  0.250000  0.000000     24.000000
  0.500000  0.250000  0.000000     12.000000
  0.333333  0.333333  0.000000     12.000000
  0.416667  0.333333  0.000000     24.000000
  0.500000  0.333333  0.000000     12.000000
  0.416667  0.416667  0.000000     12.000000
  0.500000  0.416667  0.000000     12.000000
  0.500000  0.500000  0.000000      3.000000
  0.083333  0.083333  0.083333      8.000000
  0.166667  0.083333  0.083333     24.000000
  0.250000  0.083333  0.083333     24.000000
  0.333333  0.083333  0.083333     24.000000
  0.416667  0.083333  0.083333     24.000000
  0.500000  0.083333  0.083333     12.000000
  0.166667  0.166667  0.083333     24.000000
  0.250000  0.166667  0.083333     48.000000
  0.333333  0.166667  0.083333     48.000000
  0.416667  0.166667  0.083333     48.000000
  0.500000  0.166667  0.083333     24.000000
  0.250000  0.250000  0.083333     24.000000
  0.333333  0.250000  0.083333     48.000000
  0.416667  0.250000  0.083333     48.000000
  0.500000  0.250000  0.083333     24.000000
  0.333333  0.333333  0.083333     24.000000
  0.416667  0.333333  0.083333     48.000000
  0.500000  0.333333  0.083333     24.000000
  0.416667  0.416667  0.083333     24.000000
  0.500000  0.416667  0.083333     24.000000
  0.500000  0.500000  0.083333      6.000000
  0.166667  0.166667  0.166667      8.000000
  0.250000  0.166667  0.166667     24.000000
  0.333333  0.166667  0.166667     24.000000
  0.416667  0.166667  0.166667     24.000000
  0.500000  0.166667  0.166667     12.000000
  0.250000  0.250000  0.166667     24.000000
  0.333333  0.250000  0.166667     48.000000
  0.416667  0.250000  0.166667     48.000000
  0.500000  0.250000  0.166667     24.000000
  0.333333  0.333333  0.166667     24.000000
  0.416667  0.333333  0.166667     48.000000
[...]
  0.416667  0.333333  0.250000     48.000000
  0.500000  0.333333  0.250000     24.000000
  0.416667  0.416667  0.250000     24.000000
  0.500000  0.416667  0.250000     24.000000
  0.500000  0.500000  0.250000      6.000000
  0.333333  0.333333  0.333333      8.000000
  0.416667  0.333333  0.333333     24.000000
  0.500000  0.333333  0.333333     12.000000
  0.416667  0.416667  0.333333     24.000000
  0.500000  0.416667  0.333333     24.000000
  0.500000  0.500000  0.333333      6.000000
  0.416667  0.416667  0.416667      8.000000
  0.500000  0.416667  0.416667     12.000000
  0.500000  0.500000  0.416667      6.000000
  0.500000  0.500000  0.500000      1.000000

 Following cartesian coordinates:
            Coordinates               Weight
  0.000000  0.000000  0.000000      1.000000
  0.022916  0.000000  0.000000      6.000000
  0.045833  0.000000  0.000000      6.000000
  0.068749  0.000000  0.000000      6.000000
  0.091665  0.000000  0.000000      6.000000
  0.114582  0.000000  0.000000      6.000000
  0.137498  0.000000  0.000000      3.000000
  0.022916  0.022916  0.000000     12.000000
  0.045833  0.022916  0.000000     24.000000
  0.068749  0.022916  0.000000     24.000000
  0.091665  0.022916  0.000000     24.000000
  0.114582  0.022916  0.000000     24.000000
  0.137498  0.022916  0.000000     12.000000
  0.045833  0.045833  0.000000     12.000000
  0.068749  0.045833  0.000000     24.000000
  0.091665  0.045833  0.000000     24.000000
  0.114582  0.045833  0.000000     24.000000
  0.137498  0.045833  0.000000     12.000000
  0.068749  0.068749  0.000000     12.000000
  0.091665  0.068749  0.000000     24.000000
  0.114582  0.068749  0.000000     24.000000
  0.137498  0.068749  0.000000     12.000000
  0.091665  0.091665  0.000000     12.000000
  0.114582  0.091665  0.000000     24.000000
  0.137498  0.091665  0.000000     12.000000
  0.114582  0.114582  0.000000     12.000000
  0.137498  0.114582  0.000000     12.000000
  0.137498  0.137498  0.000000      3.000000
  0.022916  0.022916  0.022916      8.000000
  0.045833  0.022916  0.022916     24.000000
  0.068749  0.022916  0.022916     24.000000
  0.091665  0.022916  0.022916     24.000000
  0.114582  0.022916  0.022916     24.000000
  0.137498  0.022916  0.022916     12.000000
  0.045833  0.045833  0.022916     24.000000
  0.068749  0.045833  0.022916     48.000000
  0.091665  0.045833  0.022916     48.000000
  0.114582  0.045833  0.022916     48.000000
  0.137498  0.045833  0.022916     24.000000
  0.068749  0.068749  0.022916     24.000000
  0.091665  0.068749  0.022916     48.000000
  0.114582  0.068749  0.022916     48.000000
  0.137498  0.068749  0.022916     24.000000
  0.091665  0.091665  0.022916     24.000000
  0.114582  0.091665  0.022916     48.000000
  0.137498  0.091665  0.022916     24.000000
  0.114582  0.114582  0.022916     24.000000
  0.137498  0.114582  0.022916     24.000000
  0.137498  0.137498  0.022916      6.000000
  0.045833  0.045833  0.045833      8.000000
  0.068749  0.045833  0.045833     24.000000
  0.091665  0.045833  0.045833     24.000000
  0.114582  0.045833  0.045833     24.000000
  0.137498  0.045833  0.045833     12.000000
  0.068749  0.068749  0.045833     24.000000
  0.091665  0.068749  0.045833     48.000000
  0.114582  0.068749  0.045833     48.000000
  0.137498  0.068749  0.045833     24.000000
  0.091665  0.091665  0.045833     24.000000
  0.114582  0.091665  0.045833     48.000000
[...]
  0.114582  0.091665  0.068749     48.000000
  0.137498  0.091665  0.068749     24.000000
  0.114582  0.114582  0.068749     24.000000
  0.137498  0.114582  0.068749     24.000000
  0.137498  0.137498  0.068749      6.000000
  0.091665  0.091665  0.091665      8.000000
  0.114582  0.091665  0.091665     24.000000
  0.137498  0.091665  0.091665     12.000000
  0.114582  0.114582  0.091665     24.000000
  0.137498  0.114582  0.091665     24.000000
  0.137498  0.137498  0.091665      6.000000
  0.114582  0.114582  0.114582      8.000000
  0.137498  0.114582  0.114582     12.000000
  0.137498  0.137498  0.114582      6.000000
  0.137498  0.137498  0.137498      1.000000

 I would recommend the setting:
   dimension x,y,z NGX =    32 NGY =   32 NGZ =   32
 SYSTEM =  unknown system
 POSCAR =  Cu

 Startparameter for this run:
   NWRITE =      2    write-flag & timer
   PREC   = accura    medium, high low
   ISTART =      0    job   : 0-new  1-cont  2-samecut
   ICHARG =      2    charge: 1-file 2-atom 10-const
   ISPIN  =      1    spin polarized calculation?
   LNONCOLLINEAR =      F non collinear calculations
   LSORBIT =      F    spin-orbit coupling
   INIWAV =      1    electr: 0-lowe 1-rand  2-diag
   LASPH  =      F    aspherical Exc in radial PAW
   METAGGA=      F    non-selfconsistent MetaGGA calc.

 Electronic Relaxation 1
   ENCUT  =  750.0 eV  55.12 Ry    7.42 a.u.   8.12  8.12  8.12*2*pi/ulx,y,z
   ENINI  =  750.0     initial cutoff
   ENAUG  =  516.5 eV  augmentation charge cutoff
   NELM   =     60;   NELMIN=  2; NELMDL=  0     # of ELM steps
   EDIFF  = 0.1E-07   stopping-criterion for ELM
   LREAL  =      F    real-space projection
   LCOMPAT=      F    compatible to vasp.4.4
   LREAL_COMPAT= F    compatible to vasp.4.5.1-3
   GGA_COMPAT  = T    GGA compatible to vasp.4.4-vasp.4.6
   LMAXPAW     = -100 max onsite density
   LMAXMIX     =    2 max onsite mixed and CHGCAR
[...]
   0.50000000  0.16666667  0.00000000       0.007
   0.25000000  0.25000000  0.00000000       0.007
   0.33333333  0.25000000  0.00000000       0.014
   0.41666667  0.25000000  0.00000000       0.014
   0.50000000  0.25000000  0.00000000       0.007
   0.33333333  0.33333333  0.00000000       0.007
   0.41666667  0.33333333  0.00000000       0.014
   0.50000000  0.33333333  0.00000000       0.007
   0.41666667  0.41666667  0.00000000       0.007
   0.50000000  0.41666667  0.00000000       0.007
   0.50000000  0.50000000  0.00000000       0.002
   0.08333333  0.08333333  0.08333333       0.005
   0.16666667  0.08333333  0.08333333       0.014
   0.25000000  0.08333333  0.08333333       0.014
   0.33333333  0.08333333  0.08333333       0.014
   0.41666667  0.08333333  0.08333333       0.014
   0.50000000  0.08333333  0.08333333       0.007
   0.16666667  0.16666667  0.08333333       0.014
   0.25000000  0.16666667  0.08333333       0.028
   0.33333333  0.16666667  0.08333333       0.028
   0.41666667  0.16666667  0.08333333       0.028
   0.50000000  0.16666667  0.08333333       0.014
   0.25000000  0.25000000  0.08333333       0.014
   0.33333333  0.25000000  0.08333333       0.028
   0.41666667  0.25000000  0.08333333       0.028
   0.50000000  0.25000000  0.08333333       0.014
   0.33333333  0.33333333  0.08333333       0.014
   0.41666667  0.33333333  0.08333333       0.028
   0.50000000  0.33333333  0.08333333       0.014
   0.41666667  0.41666667  0.08333333       0.014
   0.50000000  0.41666667  0.08333333       0.014
   0.50000000  0.50000000  0.08333333       0.003
   0.16666667  0.16666667  0.16666667       0.005
   0.25000000  0.16666667  0.16666667       0.014
   0.33333333  0.16666667  0.16666667       0.014
   0.41666667  0.16666667  0.16666667       0.014
   0.50000000  0.16666667  0.16666667       0.007
   0.25000000  0.25000000  0.16666667       0.014
   0.33333333  0.25000000  0.16666667       0.028
   0.41666667  0.25000000  0.16666667       0.028
   0.50000000  0.25000000  0.16666667       0.014
   0.33333333  0.33333333  0.16666667       0.014
   0.41666667  0.33333333  0.16666667       0.028
[...]
   0.41666667  0.33333333  0.25000000       0.028
   0.50000000  0.33333333  0.25000000       0.014
   0.41666667  0.41666667  0.25000000       0.014
   0.50000000  0.41666667  0.25000000       0.014
   0.50000000  0.50000000  0.25000000       0.003
   0.33333333  0.33333333  0.33333333       0.005
   0.41666667  0.33333333  0.33333333       0.014
   0.50000000  0.33333333  0.33333333       0.007
   0.41666667  0.41666667  0.33333333       0.014
   0.50000000  0.41666667  0.33333333       0.014
   0.50000000  0.50000000  0.33333333       0.003
   0.41666667  0.41666667  0.41666667       0.005
   0.50000000  0.41666667  0.41666667       0.007
   0.50000000  0.50000000  0.41666667       0.003
   0.50000000  0.50000000  0.50000000       0.001

 position of ions in fractional coordinates (direct lattice)
   0.00000000  0.00000000  0.00000000
   0.50000000  0.50000000  0.00000000
   0.50000000  0.00000000  0.50000000
   0.00000000  0.50000000  0.50000000

 position of ions in cartesian coordinates  (Angst):
   0.00000000  0.00000000  0.00000000
   1.81820791  1.81820791  0.00000000
   1.81820791  0.00000000  1.81820791
   0.00000000  1.81820791  1.81820791

 k-point  1 :  0.00000.00000.0000  plane waves:   2205
 k-point  2 :  0.08330.00000.0000  plane waves:   2241
 k-point  3 :  0.16670.00000.0000  plane waves:   2232
 k-point  4 :  0.25000.00000.0000  plane waves:   2252
 k-point  5 :  0.33330.00000.0000  plane waves:   2244
 k-point  6 :  0.41670.00000.0000  plane waves:   2240
 k-point  7 :  0.50000.00000.0000  plane waves:   2240
 k-point  8 :  0.08330.08330.0000  plane waves:   2227
 k-point  9 :  0.16670.08330.0000  plane waves:   2233
 k-point 10 :  0.25000.08330.0000  plane waves:   2251
 k-point 11 :  0.33330.08330.0000  plane waves:   2243
 k-point 12 :  0.41670.08330.0000  plane waves:   2242
 k-point 13 :  0.50000.08330.0000  plane waves:   2236
 k-point 14 :  0.16670.16670.0000  plane waves:   2237
 k-point 15 :  0.25000.16670.0000  plane waves:   2249
 k-point 16 :  0.33330.16670.0000  plane waves:   2249
 k-point 17 :  0.41670.16670.0000  plane waves:   2238
 k-point 18 :  0.50000.16670.0000  plane waves:   2230
 k-point 19 :  0.25000.25000.0000  plane waves:   2241
 k-point 20 :  0.33330.25000.0000  plane waves:   2246
 k-point 21 :  0.41670.25000.0000  plane waves:   2235
 k-point 22 :  0.50000.25000.0000  plane waves:   2244
 k-point 23 :  0.33330.33330.0000  plane waves:   2254
 k-point 24 :  0.41670.33330.0000  plane waves:   2229
 k-point 25 :  0.50000.33330.0000  plane waves:   2236
 k-point 26 :  0.41670.41670.0000  plane waves:   2224
 k-point 27 :  0.50000.41670.0000  plane waves:   2232
 k-point 28 :  0.50000.50000.0000  plane waves:   2216
 k-point 29 :  0.08330.08330.0833  plane waves:   2235
 k-point 30 :  0.16670.08330.0833  plane waves:   2233
 k-point 31 :  0.25000.08330.0833  plane waves:   2247
 k-point 32 :  0.33330.08330.0833  plane waves:   2240
 k-point 33 :  0.41670.08330.0833  plane waves:   2239
 k-point 34 :  0.50000.08330.0833  plane waves:   2244
 k-point 35 :  0.16670.16670.0833  plane waves:   2249
 k-point 36 :  0.25000.16670.0833  plane waves:   2256
 k-point 37 :  0.33330.16670.0833  plane waves:   2238
 k-point 38 :  0.41670.16670.0833  plane waves:   2236
 k-point 39 :  0.50000.16670.0833  plane waves:   2234
 k-point 40 :  0.25000.25000.0833  plane waves:   2239
 k-point 41 :  0.33330.25000.0833  plane waves:   2233
 k-point 42 :  0.41670.25000.0833  plane waves:   2239
 k-point 43 :  0.50000.25000.0833  plane waves:   2240
 k-point 44 :  0.33330.33330.0833  plane waves:   2240
 k-point 45 :  0.41670.33330.0833  plane waves:   2241
 k-point 46 :  0.50000.33330.0833  plane waves:   2244
 k-point 47 :  0.41670.41670.0833  plane waves:   2239
 k-point 48 :  0.50000.41670.0833  plane waves:   2246
 k-point 49 :  0.50000.50000.0833  plane waves:   2228
 k-point 50 :  0.16670.16670.1667  plane waves:   2232
 k-point 51 :  0.25000.16670.1667  plane waves:   2237
 k-point 52 :  0.33330.16670.1667  plane waves:   2236
 k-point 53 :  0.41670.16670.1667  plane waves:   2234
 k-point 54 :  0.50000.16670.1667  plane waves:   2236
 k-point 55 :  0.25000.25000.1667  plane waves:   2240
 k-point 56 :  0.33330.25000.1667  plane waves:   2239
 k-point 57 :  0.41670.25000.1667  plane waves:   2245
 k-point 58 :  0.50000.25000.1667  plane waves:   2240
 k-point 59 :  0.33330.33330.1667  plane waves:   2248
 k-point 60 :  0.41670.33330.1667  plane waves:   2243
[...]
 k-point 70 :  0.41670.33330.2500  plane waves:   2249
 k-point 71 :  0.50000.33330.2500  plane waves:   2246
 k-point 72 :  0.41670.41670.2500  plane waves:   2265
 k-point 73 :  0.50000.41670.2500  plane waves:   2252
 k-point 74 :  0.50000.50000.2500  plane waves:   2268
 k-point 75 :  0.33330.33330.3333  plane waves:   2230
 k-point 76 :  0.41670.33330.3333  plane waves:   2259
 k-point 77 :  0.50000.33330.3333  plane waves:   2258
 k-point 78 :  0.41670.41670.3333  plane waves:   2261
 k-point 79 :  0.50000.41670.3333  plane waves:   2266
 k-point 80 :  0.50000.50000.3333  plane waves:   2268
 k-point 81 :  0.41670.41670.4167  plane waves:   2263
 k-point 82 :  0.50000.41670.4167  plane waves:   2268
 k-point 83 :  0.50000.50000.4167  plane waves:   2276
 k-point 84 :  0.50000.50000.5000  plane waves:   2272

 maximum and minimum number of plane-waves per node :   2276  2205

 maximum number of plane-waves:   2276
 maximal index in each direction:
   IXMAX=  8   IYMAX=  8   IZMAX=  8
   IXMIN= -8   IYMIN= -8   IZMIN= -8

 WARNING: wrap around error must be expected set NGX to  34
 WARNING: wrap around error must be expected set NGY to  34
 WARNING: wrap around error must be expected set NGZ to  34

 parallel 3dFFT wavefunction:
    minimum data exchange during FFTs selected (reduces bandwidth)
 parallel 3dFFT charge:
    minimum data exchange during FFTs selected (reduces bandwidth)

Broyden mixing: mesh for mixing (old mesh)
   NGX = 17   NGY = 17   NGZ = 17
  (NGX  = 64   NGY  = 64   NGZ  = 64)
 gives a total of   4913 points
 initial charge density was supplied:
 charge density of overlapping atoms calculated
 number of electron   44.0000000 magnetization
 keeping initial charge density in first step

 Maximum index for augmentation-charges        92739 (set IRDMAX)

 First call to EWALD:  gamma=   0.487
 Maximum number of real-space cells 3x 3x 3
 Maximum number of reciprocal cells 3x 3x 3

----------------------------------------- Iteration    1(   1)  ---------------------------------------

 eigenvalue-minimisations  :  4448
 total energy-change (2. order) : 0.3150231E+03  (-0.2728798E+04)
 number of electron   44.0000000 magnetization
 augmentation part    44.0000000 magnetization

 Free energy of the ion-electron system (eV)
  alpha Z        PSCENC =       425.11142968
  Ewald energy   TEWEN  =     -4393.63708839
  -1/2 Hartree   DENC   =     -1318.48477470
  -V(xc)+E(xc)   XCENC  =       175.41199005
  PAW double counting   =      4328.20916945    -4904.30802700
  entropy T*S    EENTRO =        -0.00018905
  eigenvalues    EBANDS =       438.80301997
  atomic energy  EATOM  =      5563.91755062
  free energy    TOTEN  =       315.02308063 eV

  energy without entropy =      315.02326969  energy(sigma->0) =      315.02317516

[...]

 eigenvalue-minimisations  :  4368
 total energy-change (2. order) :-0.3145352E+03  (-0.3083846E+03)
 number of electron   44.0000000 magnetization
 augmentation part    44.0000000 magnetization

[...]

 Broyden mixing:
  rms(total) = 0.13921E+01    rms(broyden)= 0.13921E+01
  rms(prec ) = 0.33320E+01
  weight for this iteration     100.00

[...]

 eigenvalues of (default mixing * dielectric matrix)
  average eigenvalue GAMMA=   0.6893
  0.6893

[...]

 eigenvalue-minimisations  :  2262
 total energy-change (2. order) :-0.5043967E-07  (-0.2249587E-09)
 number of electron   44.0000003 magnetization
 augmentation part    28.7718440 magnetization

[...]

 Broyden mixing:
  rms(total) = 0.27312E-05    rms(broyden)= 0.27312E-05
  rms(prec ) = 0.65849E-05
  weight for this iteration     100.00

 eigenvalues of (default mixing * dielectric matrix)
  average eigenvalue GAMMA=   1.5921
  2.8073  2.6332  2.6332  2.5261  1.0302  1.0302  0.9483  0.9483  0.6877  0.6768

[...]

----------------------------------------- Iteration    1(  16)  ---------------------------------------

 eigenvalue-minimisations  :  2210
 total energy-change (2. order) : 0.9476025E-08  (-0.8552880E-11)
 number of electron   44.0000003 magnetization
 augmentation part    28.7718442 magnetization

 Free energy of the ion-electron system (eV)
  alpha Z        PSCENC =       425.11142968
  Ewald energy   TEWEN  =     -4393.63708839
  -1/2 Hartree   DENC   =     -1230.91933363
  -V(xc)+E(xc)   XCENC  =       171.09989102
  PAW double counting   =      4383.55517764    -4962.29859962
  entropy T*S    EENTRO =        -0.00013907
  eigenvalues    EBANDS =        28.29055751
  atomic energy  EATOM  =      5563.91755062
  free energy    TOTEN  =       -14.88055423 eV

  energy without entropy =      -14.88041516  energy(sigma->0) =      -14.88048470

 average (electrostatic) potential at core
  the test charge radii are     1.0053
  (the norm of the test charge is              1.0000)
       1 -40.0362       2 -40.0362       3 -40.0362       4 -40.0362

 E-fermi :   3.6803     XC(G=0): -12.6962     alpha+bet : -9.4615
   add alpha+bet to get absolut eigen values

 k-point   1 :       0.0000    0.0000    0.0000
  band No.  band energies     occupation
      1      -5.5731      2.00000
      2      -1.1481      2.00000
      3      -1.1481      2.00000
      4      -1.1481      2.00000
      5      -0.7066      2.00000
      6      -0.7066      2.00000
      7      -0.7066      2.00000
      8       0.6472      2.00000
      9       0.6472      2.00000
     10       0.6472      2.00000
     11       1.4529      2.00000
     12       1.4529      2.00000
     13       1.9881      2.00000
     14       1.9881      2.00000
     15       1.9881      2.00000
     16       2.1382      2.00000
     17       2.1382      2.00000
     18       2.1382      2.00000
     19       2.1382      2.00000
     20       2.1382      2.00000
     21       2.1382      2.00000
     22       5.1658      0.00000
     23       5.1658      0.00000
     24       5.1658      0.00000
     25      10.6378      0.00000
     26      10.6378      0.00000

[...]

 k-point  84 :       0.5000    0.5000    0.5000
  band No.  band energies     occupation
      1      -1.3501      2.00000
      2      -1.3501      2.00000
      3      -1.3501      2.00000
      4      -1.3501      2.00000
      5       0.6189      2.00000
      6       0.6189      2.00000
      7       0.6189      2.00000
      8       0.6189      2.00000
      9       0.6189      2.00000
     10       0.6189      2.00000
     11       0.6189      2.00000
     12       0.6189      2.00000
     13       2.0020      2.00000
     14       2.0020      2.00000
     15       2.0020      2.00000
     16       2.0020      2.00000
     17       2.0020      2.00000
     18       2.0020      2.00000
     19       2.0020      2.00000
     20       2.0020      2.00000
     21       2.6963      2.00000
     22       2.6963      2.00000
     23       2.6963      2.00000
     24       2.6963      2.00000
     25       7.3054      0.00000
     26       7.3054      0.00000

 soft charge-density along one line, spin component           1
         0         1         2         3         4         5         6         7         8         9
 total charge-density along one line

------------------------ aborting loop because EDIFF is reached ----------------------------------------

  FREE ENERGIE OF THE ION-ELECTRON SYSTEM (eV)
  free  energy   TOTEN  =       -14.880554 eV

  energy  without entropy=      -14.880415  energy(sigma->0) =      -14.880485

  FORCE on cell =-STRESS in cart. coord.  units (eV/reduce length):
  Direction    X        Y        Z        XY       YZ       ZX
  Alpha Z    425.11    425.11    425.11
  Ewald    -1464.55  -1464.55  -1464.55     -0.00     -0.00      0.00
  Hartree    410.31    410.31    410.31     -0.00     -0.00     -0.00
  E(xc)     -250.56   -250.56   -250.56      0.00      0.00      0.00
  Local      485.91    485.91    485.91     -0.00      0.00      0.00
  n-local   -142.31   -148.04   -149.36      0.34      1.79      0.66
  augment    226.04    226.04    226.04      0.00     -0.00      0.00
  Kinetic    321.85    313.58    307.60     -3.05     -0.07     -1.25
  Total        0.03      0.03      0.03      0.00     -0.00     -0.00
  in kB        0.98      0.98      0.98      0.00     -0.00     -0.00

 VOLUME and BASIS-vectors are now :
  energy-cutoff  :      750.00
  volume of cell :       48.09
      direct lattice vectors                 reciprocal lattice vectors
     3.636415812  0.000000000  0.000000000     0.274996054  0.000000000  0.000000000
     0.000000000  3.636415812  0.000000000     0.000000000  0.274996054  0.000000000
     0.000000000  0.000000000  3.636415812     0.000000000  0.000000000  0.274996054

  length of vectors
     3.636415812  3.636415812  3.636415812     0.274996054  0.274996054  0.274996054

 FORCES acting on ions
    electron-ion (+dipol)            ewald-force                    non-local-force                 convergence-correction
   0.262E-14 0.262E-13 -.556E-13   -.150E-13 -.774E-14 -.727E-14   0.743E-25 0.103E-24 0.226E-24   -.722E-13 -.527E-14 0.477E-13
   0.198E-12 -.285E-11 -.372E-11   0.329E-13 0.989E-14 -.721E-14   -.284E-24 -.620E-24 -.103E-24   -.132E-13 -.639E-14 0.506E-13
   0.198E-12 0.261E-13 -.460E-11   -.230E-13 -.110E-13 0.832E-14   0.155E-24 0.439E-24 -.258E-24   -.226E-13 -.284E-13 0.492E-13
   0.244E-14 0.222E-12 0.141E-12   0.273E-14 0.666E-14 0.837E-14   -.362E-24 0.362E-24 0.129E-24   -.755E-13 -.159E-13 0.450E-13
   0.401E-12 -.258E-11 -.824E-11   -.233E-14 -.216E-14 0.221E-14   -.417E-24 0.284E-24 -.646E-26   -.184E-12 -.559E-13 0.193E-12

 POSITION                                       TOTAL-FORCE (eV/Angst)
      0.00000      0.00000      0.00000         0.000000      0.000000     -0.000000
      1.81821      1.81821      0.00000         0.000000     -0.000000      0.000000
      1.81821      0.00000      1.81821         0.000000     -0.000000     -0.000000
      0.00000      1.81821      1.81821         0.000000     -0.000000      0.000000
    total drift:                                0.000000     -0.000000     -0.000000

 mean value of Nose-termostat <S>:     1.000 mean value of <T> :     0.000
 mean temperature <T/S>/<1/S>  :     0.000