 vasp.4.6.28 25Jul05 complex
 executed on             LinuxIFC date 2016.07.06  18:24:23

 INCAR:
 POTCAR:   PAW_PBE Cu 05Jan2001
 POTCAR:   PAW_PBE Cu 05Jan2001
   VRHFIN =Cu: d10 p1

   TITEL  = PAW_PBE Cu 05Jan2001
   POMASS =   63.546; ZVAL   =   11.000    mass and valenz
   ENMAX  =  273.214; ENMIN  =  204.910 eV
   QCUT   =   -4.481; QGAM   =    8.962    optimization parameters

   Description
     l     E      TYP  RCUT    TYP  RCUT
     2   .000     23  2.300
     2   .000     23  2.300
     0   .000     23  2.300
     0   .000     23  2.300
     1  -.200     23  2.300
     1   .000     23  2.300
     3   .000      7   .000

 PAW_PBE Cu 05Jan2001                   :

 POSCAR: Cu
  positions in direct lattice
  velocities in cartesian coordinates

 ion  position               nearest neighbor table
   1  0.000  0.000  0.000-   2 2.47   3 2.47   4 2.47   3 2.47   4 2.47   2 2.47   4 2.47   4 2.47
                             2 2.47   3 2.47   3 2.47   2 2.47
   2  0.500  0.500  0.000-   1 2.47   3 2.47   4 2.47   3 2.47   4 2.47   1 2.47   3 2.47   3 2.47
                             1 2.47   4 2.47   4 2.47   1 2.47
   3  0.500  0.000  0.500-   1 2.47   2 2.47   4 2.47   1 2.47   2 2.47   2 2.47   4 2.47   2 2.47
                             1 2.47   4 2.47   1 2.47   4 2.47
   4  0.000  0.500  0.500-   1 2.47   2 2.47   3 2.47   1 2.47   2 2.47   1 2.47   3 2.47   1 2.47
                             2 2.47   3 2.47   2 2.47   3 2.47

  LATTYP: Found a simple cubic cell.
 ALAT       =     3.4909591793

  Lattice vectors:

 A1 = (   3.4909591793,   0.0000000000,   0.0000000000)
 A2 = (   0.0000000000,   3.4909591793,   0.0000000000)
 A3 = (   0.0000000000,   0.0000000000,   3.4909591793)
 Subroutine PRICEL returns following result:

  LATTYP: Found a face centered cubic cell.
 ALAT       =     3.4909591793

  Lattice vectors:

 A1 = (   1.7454795896,   1.7454795896,  -0.0000000000)
 A2 = (   1.7454795896,   0.0000000000,  -1.7454795896)
 A3 = (   0.0000000000,   1.7454795896,  -1.7454795896)

   4 primitive cells build up your supercell.

Analysis of symmetry for initial positions (statically):

 Routine SETGRP: Setting up the symmetry group for a
 simple cubic supercell.

 Subroutine GETGRP returns: Found 48 space group operations
 (whereof 48 operations were pure point group operations)
 out of a pool of 48 trial point group operations.

The static configuration has the point symmetry O_h .

Analysis of symmetry for dynamics (positions and initial velocities):

 Subroutine DYNSYM returns: Found 48 space group operations
 (whereof 48 operations were pure point group operations)
 out of a pool of 48 trial space group operations
 (whereof 48 operations were pure point group operations)
 and found also     4 'primitive' translations

The dynamic configuration has the point symmetry O_h .

 KPOINTS: Automatic mesh

Automatic generation of k-mesh.
 generate k-points for:  14  14  14

 Subroutine IBZKPT returns following result:

 Found    120 irreducible k-points:

 Following reciprocal coordinates:
            Coordinates               Weight
  0.000000  0.000000  0.000000      1.000000
  0.071429  0.000000  0.000000      6.000000
  0.142857  0.000000  0.000000      6.000000
  0.214286  0.000000  0.000000      6.000000
  0.285714  0.000000  0.000000      6.000000
  0.357143  0.000000  0.000000      6.000000
  0.428571  0.000000  0.000000      6.000000
  0.500000  0.000000  0.000000      3.000000
  0.071429  0.071429  0.000000     12.000000
  0.142857  0.071429  0.000000     24.000000
  0.214286  0.071429  0.000000     24.000000
  0.285714  0.071429  0.000000     24.000000
  0.357143  0.071429  0.000000     24.000000
  0.428571  0.071429  0.000000     24.000000
  0.500000  0.071429  0.000000     12.000000
  0.142857  0.142857  0.000000     12.000000
  0.214286  0.142857  0.000000     24.000000
  0.285714  0.142857  0.000000     24.000000
  0.357143  0.142857  0.000000     24.000000
  0.428571  0.142857  0.000000     24.000000
  0.500000  0.142857  0.000000     12.000000
  0.214286  0.214286  0.000000     12.000000
  0.285714  0.214286  0.000000     24.000000
  0.357143  0.214286  0.000000     24.000000
  0.428571  0.214286  0.000000     24.000000
  0.500000  0.214286  0.000000     12.000000
  0.285714  0.285714  0.000000     12.000000
  0.357143  0.285714  0.000000     24.000000
  0.428571  0.285714  0.000000     24.000000
  0.500000  0.285714  0.000000     12.000000
  0.357143  0.357143  0.000000     12.000000
  0.428571  0.357143  0.000000     24.000000
  0.500000  0.357143  0.000000     12.000000
  0.428571  0.428571  0.000000     12.000000
  0.500000  0.428571  0.000000     12.000000
  0.500000  0.500000  0.000000      3.000000
  0.071429  0.071429  0.071429      8.000000
  0.142857  0.071429  0.071429     24.000000
  0.214286  0.071429  0.071429     24.000000
  0.285714  0.071429  0.071429     24.000000
  0.357143  0.071429  0.071429     24.000000
  0.428571  0.071429  0.071429     24.000000
  0.500000  0.071429  0.071429     12.000000
  0.142857  0.142857  0.071429     24.000000
  0.214286  0.142857  0.071429     48.000000
  0.285714  0.142857  0.071429     48.000000
  0.357143  0.142857  0.071429     48.000000
  0.428571  0.142857  0.071429     48.000000
  0.500000  0.142857  0.071429     24.000000
  0.214286  0.214286  0.071429     24.000000
  0.285714  0.214286  0.071429     48.000000
  0.357143  0.214286  0.071429     48.000000
  0.428571  0.214286  0.071429     48.000000
  0.500000  0.214286  0.071429     24.000000
  0.285714  0.285714  0.071429     24.000000
  0.357143  0.285714  0.071429     48.000000
  0.428571  0.285714  0.071429     48.000000
  0.500000  0.285714  0.071429     24.000000
  0.357143  0.357143  0.071429     24.000000
  0.428571  0.357143  0.071429     48.000000
[...]
  0.428571  0.357143  0.285714     48.000000
  0.500000  0.357143  0.285714     24.000000
  0.428571  0.428571  0.285714     24.000000
  0.500000  0.428571  0.285714     24.000000
  0.500000  0.500000  0.285714      6.000000
  0.357143  0.357143  0.357143      8.000000
  0.428571  0.357143  0.357143     24.000000
  0.500000  0.357143  0.357143     12.000000
  0.428571  0.428571  0.357143     24.000000
  0.500000  0.428571  0.357143     24.000000
  0.500000  0.500000  0.357143      6.000000
  0.428571  0.428571  0.428571      8.000000
  0.500000  0.428571  0.428571     12.000000
  0.500000  0.500000  0.428571      6.000000
  0.500000  0.500000  0.500000      1.000000

 Following cartesian coordinates:
            Coordinates               Weight
  0.000000  0.000000  0.000000      1.000000
  0.019643  0.000000  0.000000      6.000000
  0.039285  0.000000  0.000000      6.000000
  0.058928  0.000000  0.000000      6.000000
  0.078570  0.000000  0.000000      6.000000
  0.098213  0.000000  0.000000      6.000000
  0.117855  0.000000  0.000000      6.000000
  0.137498  0.000000  0.000000      3.000000
  0.019643  0.019643  0.000000     12.000000
  0.039285  0.019643  0.000000     24.000000
  0.058928  0.019643  0.000000     24.000000
  0.078570  0.019643  0.000000     24.000000
  0.098213  0.019643  0.000000     24.000000
  0.117855  0.019643  0.000000     24.000000
  0.137498  0.019643  0.000000     12.000000
  0.039285  0.039285  0.000000     12.000000
  0.058928  0.039285  0.000000     24.000000
  0.078570  0.039285  0.000000     24.000000
  0.098213  0.039285  0.000000     24.000000
  0.117855  0.039285  0.000000     24.000000
  0.137498  0.039285  0.000000     12.000000
  0.058928  0.058928  0.000000     12.000000
  0.078570  0.058928  0.000000     24.000000
  0.098213  0.058928  0.000000     24.000000
  0.117855  0.058928  0.000000     24.000000
  0.137498  0.058928  0.000000     12.000000
  0.078570  0.078570  0.000000     12.000000
  0.098213  0.078570  0.000000     24.000000
  0.117855  0.078570  0.000000     24.000000
  0.137498  0.078570  0.000000     12.000000
  0.098213  0.098213  0.000000     12.000000
  0.117855  0.098213  0.000000     24.000000
  0.137498  0.098213  0.000000     12.000000
  0.117855  0.117855  0.000000     12.000000
  0.137498  0.117855  0.000000     12.000000
  0.137498  0.137498  0.000000      3.000000
  0.019643  0.019643  0.019643      8.000000
  0.039285  0.019643  0.019643     24.000000
  0.058928  0.019643  0.019643     24.000000
  0.078570  0.019643  0.019643     24.000000
  0.098213  0.019643  0.019643     24.000000
  0.117855  0.019643  0.019643     24.000000
  0.137498  0.019643  0.019643     12.000000
  0.039285  0.039285  0.019643     24.000000
  0.058928  0.039285  0.019643     48.000000
  0.078570  0.039285  0.019643     48.000000
  0.098213  0.039285  0.019643     48.000000
  0.117855  0.039285  0.019643     48.000000
  0.137498  0.039285  0.019643     24.000000
  0.058928  0.058928  0.019643     24.000000
  0.078570  0.058928  0.019643     48.000000
  0.098213  0.058928  0.019643     48.000000
  0.117855  0.058928  0.019643     48.000000
  0.137498  0.058928  0.019643     24.000000
  0.078570  0.078570  0.019643     24.000000
  0.098213  0.078570  0.019643     48.000000
  0.117855  0.078570  0.019643     48.000000
  0.137498  0.078570  0.019643     24.000000
  0.098213  0.098213  0.019643     24.000000
  0.117855  0.098213  0.019643     48.000000
[...]
  0.117855  0.098213  0.078570     48.000000
  0.137498  0.098213  0.078570     24.000000
  0.117855  0.117855  0.078570     24.000000
  0.137498  0.117855  0.078570     24.000000
  0.137498  0.137498  0.078570      6.000000
  0.098213  0.098213  0.098213      8.000000
  0.117855  0.098213  0.098213     24.000000
  0.137498  0.098213  0.098213     12.000000
  0.117855  0.117855  0.098213     24.000000
  0.137498  0.117855  0.098213     24.000000
  0.137498  0.137498  0.098213      6.000000
  0.117855  0.117855  0.117855      8.000000
  0.137498  0.117855  0.117855     12.000000
  0.137498  0.137498  0.117855      6.000000
  0.137498  0.137498  0.137498      1.000000

 I would recommend the setting:
   dimension x,y,z NGX =    25 NGY =   25 NGZ =   25
 SYSTEM =  unknown system
 POSCAR =  Cu

 Startparameter for this run:
   NWRITE =      2    write-flag & timer
   PREC   = accura    medium, high low
   ISTART =      0    job   : 0-new  1-cont  2-samecut
   ICHARG =      2    charge: 1-file 2-atom 10-const
   ISPIN  =      1    spin polarized calculation?
   LNONCOLLINEAR =      F non collinear calculations
   LSORBIT =      F    spin-orbit coupling
   INIWAV =      1    electr: 0-lowe 1-rand  2-diag
   LASPH  =      F    aspherical Exc in radial PAW
   METAGGA=      F    non-selfconsistent MetaGGA calc.

 Electronic Relaxation 1
   ENCUT  =  500.0 eV  36.75 Ry    6.06 a.u.   6.36  6.36  6.36*2*pi/ulx,y,z
   ENINI  =  500.0     initial cutoff
   ENAUG  =  516.5 eV  augmentation charge cutoff
   NELM   =     60;   NELMIN=  2; NELMDL=  0     # of ELM steps
   EDIFF  = 0.1E-07   stopping-criterion for ELM
   LREAL  =      F    real-space projection
   LCOMPAT=      F    compatible to vasp.4.4
   LREAL_COMPAT= F    compatible to vasp.4.5.1-3
   GGA_COMPAT  = T    GGA compatible to vasp.4.4-vasp.4.6
   LMAXPAW     = -100 max onsite density
   LMAXMIX     =    2 max onsite mixed and CHGCAR
[...]
   0.42857143  0.14285714  0.07142857       0.017
   0.50000000  0.14285714  0.07142857       0.009
   0.21428571  0.21428571  0.07142857       0.009
   0.28571429  0.21428571  0.07142857       0.017
   0.35714286  0.21428571  0.07142857       0.017
   0.42857143  0.21428571  0.07142857       0.017
   0.50000000  0.21428571  0.07142857       0.009
   0.28571429  0.28571429  0.07142857       0.009
   0.35714286  0.28571429  0.07142857       0.017
   0.42857143  0.28571429  0.07142857       0.017
   0.50000000  0.28571429  0.07142857       0.009
   0.35714286  0.35714286  0.07142857       0.009
   0.42857143  0.35714286  0.07142857       0.017
[...]
   0.42857143  0.35714286  0.28571429       0.017
   0.50000000  0.35714286  0.28571429       0.009
   0.42857143  0.42857143  0.28571429       0.009
   0.50000000  0.42857143  0.28571429       0.009
   0.50000000  0.50000000  0.28571429       0.002
   0.35714286  0.35714286  0.35714286       0.003
   0.42857143  0.35714286  0.35714286       0.009
   0.50000000  0.35714286  0.35714286       0.004
   0.42857143  0.42857143  0.35714286       0.009
   0.50000000  0.42857143  0.35714286       0.009
   0.50000000  0.50000000  0.35714286       0.002
   0.42857143  0.42857143  0.42857143       0.003
   0.50000000  0.42857143  0.42857143       0.004
   0.50000000  0.50000000  0.42857143       0.002
   0.50000000  0.50000000  0.50000000       0.000

 position of ions in fractional coordinates (direct lattice)
   0.00000000  0.00000000  0.00000000
   0.50000000  0.50000000  0.00000000
   0.50000000  0.00000000  0.50000000
   0.00000000  0.50000000  0.50000000

 position of ions in cartesian coordinates  (Angst):
   0.00000000  0.00000000  0.00000000
   1.74547959  1.74547959  0.00000000
   1.74547959  0.00000000  1.74547959
   0.00000000  1.74547959  1.74547959

 k-point  1 :  0.00000.00000.0000  plane waves:   1045
 k-point  2 :  0.07140.00000.0000  plane waves:   1065
 k-point  3 :  0.14290.00000.0000  plane waves:   1073
 k-point  4 :  0.21430.00000.0000  plane waves:   1085
 k-point  5 :  0.28570.00000.0000  plane waves:   1089
 k-point  6 :  0.35710.00000.0000  plane waves:   1089
 k-point  7 :  0.42860.00000.0000  plane waves:   1084
 k-point  8 :  0.50000.00000.0000  plane waves:   1108
 k-point  9 :  0.07140.07140.0000  plane waves:   1069
 k-point 10 :  0.14290.07140.0000  plane waves:   1081
 k-point 11 :  0.21430.07140.0000  plane waves:   1090
 k-point 12 :  0.28570.07140.0000  plane waves:   1077
 k-point 13 :  0.35710.07140.0000  plane waves:   1082
 k-point 14 :  0.42860.07140.0000  plane waves:   1088
 k-point 15 :  0.50000.07140.0000  plane waves:   1080
 k-point 16 :  0.14290.14290.0000  plane waves:   1077
 k-point 17 :  0.21430.14290.0000  plane waves:   1086
 k-point 18 :  0.28570.14290.0000  plane waves:   1084
 k-point 19 :  0.35710.14290.0000  plane waves:   1087
 k-point 20 :  0.42860.14290.0000  plane waves:   1092
 k-point 21 :  0.50000.14290.0000  plane waves:   1084
 k-point 22 :  0.21430.21430.0000  plane waves:   1077
 k-point 23 :  0.28570.21430.0000  plane waves:   1080
 k-point 24 :  0.35710.21430.0000  plane waves:   1085
 k-point 25 :  0.42860.21430.0000  plane waves:   1089
 k-point 26 :  0.50000.21430.0000  plane waves:   1090
 k-point 27 :  0.28570.28570.0000  plane waves:   1077
 k-point 28 :  0.35710.28570.0000  plane waves:   1081
 k-point 29 :  0.42860.28570.0000  plane waves:   1082
 k-point 30 :  0.50000.28570.0000  plane waves:   1086
 k-point 31 :  0.35710.35710.0000  plane waves:   1073
 k-point 32 :  0.42860.35710.0000  plane waves:   1081
 k-point 33 :  0.50000.35710.0000  plane waves:   1078
 k-point 34 :  0.42860.42860.0000  plane waves:   1089
 k-point 35 :  0.50000.42860.0000  plane waves:   1074
 k-point 36 :  0.50000.50000.0000  plane waves:   1092
 k-point 37 :  0.07140.07140.0714  plane waves:   1063
 k-point 38 :  0.14290.07140.0714  plane waves:   1080
 k-point 39 :  0.21430.07140.0714  plane waves:   1082
 k-point 40 :  0.28570.07140.0714  plane waves:   1080
 k-point 41 :  0.35710.07140.0714  plane waves:   1081
 k-point 42 :  0.42860.07140.0714  plane waves:   1090
 k-point 43 :  0.50000.07140.0714  plane waves:   1084
 k-point 44 :  0.14290.14290.0714  plane waves:   1085
 k-point 45 :  0.21430.14290.0714  plane waves:   1083
 k-point 46 :  0.28570.14290.0714  plane waves:   1081
 k-point 47 :  0.35710.14290.0714  plane waves:   1083
 k-point 48 :  0.42860.14290.0714  plane waves:   1090
 k-point 49 :  0.50000.14290.0714  plane waves:   1092
 k-point 50 :  0.21430.21430.0714  plane waves:   1080
 k-point 51 :  0.28570.21430.0714  plane waves:   1083
 k-point 52 :  0.35710.21430.0714  plane waves:   1098
 k-point 53 :  0.42860.21430.0714  plane waves:   1089
 k-point 54 :  0.50000.21430.0714  plane waves:   1086
 k-point 55 :  0.28570.28570.0714  plane waves:   1086
 k-point 56 :  0.35710.28570.0714  plane waves:   1085
 k-point 57 :  0.42860.28570.0714  plane waves:   1082
 k-point 58 :  0.50000.28570.0714  plane waves:   1088
 k-point 59 :  0.35710.35710.0714  plane waves:   1074
 k-point 60 :  0.42860.35710.0714  plane waves:   1077
[...]
 k-point 85 :  0.50000.50000.1429  plane waves:   1064
 k-point 86 :  0.21430.21430.2143  plane waves:   1078
 k-point 87 :  0.28570.21430.2143  plane waves:   1078
 k-point 88 :  0.35710.21430.2143  plane waves:   1088
 k-point 89 :  0.42860.21430.2143  plane waves:   1083
 k-point 90 :  0.50000.21430.2143  plane waves:   1080
 k-point 91 :  0.28570.28570.2143  plane waves:   1079
 k-point 92 :  0.35710.28570.2143  plane waves:   1073
 k-point 93 :  0.42860.28570.2143  plane waves:   1081
 k-point 94 :  0.50000.28570.2143  plane waves:   1076
 k-point 95 :  0.35710.35710.2143  plane waves:   1066
 k-point 96 :  0.42860.35710.2143  plane waves:   1072
 k-point 97 :  0.50000.35710.2143  plane waves:   1068
 k-point 98 :  0.42860.42860.2143  plane waves:   1070
 k-point 99 :  0.50000.42860.2143  plane waves:   1074
 k-point ** :  0.50000.50000.2143  plane waves:   1072
 k-point ** :  0.28570.28570.2857  plane waves:   1072
 k-point ** :  0.35710.28570.2857  plane waves:   1076
 k-point ** :  0.42860.28570.2857  plane waves:   1077
 k-point ** :  0.50000.28570.2857  plane waves:   1072
 k-point ** :  0.35710.35710.2857  plane waves:   1078
 k-point ** :  0.42860.35710.2857  plane waves:   1072
 k-point ** :  0.50000.35710.2857  plane waves:   1072
 k-point ** :  0.42860.42860.2857  plane waves:   1067
 k-point ** :  0.50000.42860.2857  plane waves:   1068
 k-point ** :  0.50000.50000.2857  plane waves:   1072
 k-point ** :  0.35710.35710.3571  plane waves:   1070
 k-point ** :  0.42860.35710.3571  plane waves:   1068
 k-point ** :  0.50000.35710.3571  plane waves:   1068
 k-point ** :  0.42860.42860.3571  plane waves:   1067
 k-point ** :  0.50000.42860.3571  plane waves:   1070
 k-point ** :  0.50000.50000.3571  plane waves:   1072
 k-point ** :  0.42860.42860.4286  plane waves:   1070
 k-point ** :  0.50000.42860.4286  plane waves:   1074
 k-point ** :  0.50000.50000.4286  plane waves:   1072
 k-point ** :  0.50000.50000.5000  plane waves:   1064

 maximum and minimum number of plane-waves per node :   1108  1045

 maximum number of plane-waves:   1108
 maximal index in each direction:
   IXMAX=  6   IYMAX=  6   IZMAX=  6
   IXMIN= -6   IYMIN= -6   IZMIN= -6

 NGX is ok and might be reduce to  26
 NGY is ok and might be reduce to  26
 NGZ is ok and might be reduce to  26

 parallel 3dFFT wavefunction:
    minimum data exchange during FFTs selected (reduces bandwidth)
 parallel 3dFFT charge:
    minimum data exchange during FFTs selected (reduces bandwidth)

Broyden mixing: mesh for mixing (old mesh)
   NGX = 13   NGY = 13   NGZ = 13
  (NGX  = 56   NGY  = 56   NGZ  = 56)
 gives a total of   2197 points
 initial charge density was supplied:
 charge density of overlapping atoms calculated
 number of electron   44.0000000 magnetization
 keeping initial charge density in first step

 Maximum index for augmentation-charges        17353 (set IRDMAX)

 First call to EWALD:  gamma=   0.508
 Maximum number of real-space cells 3x 3x 3
 Maximum number of reciprocal cells 3x 3x 3

----------------------------------------- Iteration    1(   1)  ---------------------------------------

 eigenvalue-minimisations  :  8112
 total energy-change (2. order) : 0.2770250E+03  (-0.2014428E+04)
 number of electron   44.0000000 magnetization
 augmentation part    44.0000000 magnetization

 Free energy of the ion-electron system (eV)
  alpha Z        PSCENC =       480.49523212
  Ewald energy   TEWEN  =     -4576.70530040
  -1/2 Hartree   DENC   =     -1224.09438641
  -V(xc)+E(xc)   XCENC  =       176.86106456
  PAW double counting   =      4328.20916945    -4904.30802700
  entropy T*S    EENTRO =        -0.00012249
  eigenvalues    EBANDS =       432.66006444
  atomic energy  EATOM  =      5563.90732063
  free energy    TOTEN  =       277.02501488 eV

  energy without entropy =      277.02513737  energy(sigma->0) =      277.02507613

[...]

 eigenvalue-minimisations  :  7736
 total energy-change (2. order) :-0.2762640E+03  (-0.2612697E+03)
 number of electron   44.0000000 magnetization
 augmentation part    44.0000000 magnetization

[...]

 Broyden mixing:
  rms(total) = 0.14108E+01    rms(broyden)= 0.14108E+01
  rms(prec ) = 0.34176E+01
  weight for this iteration     100.00

[...]

 eigenvalues of (default mixing * dielectric matrix)
  average eigenvalue GAMMA=   0.7448
  0.7448

[...]

 eigenvalue-minimisations  :  4592
 total energy-change (2. order) : 0.1481931E-07  (-0.2702718E-10)
 number of electron   44.0000003 magnetization
 augmentation part    28.6529071 magnetization

 Broyden mixing:
  rms(total) = 0.28890E-05    rms(broyden)= 0.28889E-05
  rms(prec ) = 0.73689E-05
  weight for this iteration     100.00

 eigenvalues of (default mixing * dielectric matrix)
  average eigenvalue GAMMA=   1.6065
  2.8010  2.6205  2.6205  2.4867  0.7029  1.0332  1.0332  0.9643  0.9643  0.8382

[...]

----------------------------------------- Iteration    1(  16)  ---------------------------------------

 eigenvalue-minimisations  :  4336
 total energy-change (2. order) :-0.2198249E-08  (-0.3891448E-11)
 number of electron   44.0000003 magnetization
 augmentation part    28.6529071 magnetization

 Free energy of the ion-electron system (eV)
  alpha Z        PSCENC =       480.49523212
  Ewald energy   TEWEN  =     -4576.70530040
  -1/2 Hartree   DENC   =     -1132.71675250
  -V(xc)+E(xc)   XCENC  =       172.25269549
  PAW double counting   =      4467.77020340    -5049.38752962
  entropy T*S    EENTRO =        -0.00009531
  eigenvalues    EBANDS =        59.85735419
  atomic energy  EATOM  =      5563.90732063
  free energy    TOTEN  =       -14.52687201 eV

  energy without entropy =      -14.52677670  energy(sigma->0) =      -14.52682436

 average (electrostatic) potential at core
  the test charge radii are     1.0053
  (the norm of the test charge is              1.0000)
       1 -39.2329       2 -39.2329       3 -39.2329       4 -39.2329

 E-fermi :   4.7851     XC(G=0): -13.4269     alpha+bet :-10.6942
   add alpha+bet to get absolut eigen values

 k-point   1 :       0.0000    0.0000    0.0000
  band No.  band energies     occupation
      1      -5.4319      2.00000
      2      -0.8100      2.00000
      3      -0.8100      2.00000
      4      -0.8100      2.00000
      5      -0.2850      2.00000
      6      -0.2850      2.00000
      7      -0.2850      2.00000
      8       1.3527      2.00000
      9       1.3527      2.00000
     10       1.3527      2.00000
     11       2.3270      2.00000
     12       2.3270      2.00000
     13       2.9728      2.00000
     14       2.9728      2.00000
     15       2.9728      2.00000
     16       3.1547      2.00000
     17       3.1547      2.00000
     18       3.1547      2.00000
     19       3.1547      2.00000
     20       3.1547      2.00000
     21       3.1547      2.00000
     22       6.1841      0.00000
     23       6.1841      0.00000
     24       6.1841      0.00000
     25      12.6332      0.00000
     26      12.6332      0.00000
     27      12.6332      0.00000
     28      18.7872      0.00000
     29      18.7872      0.00000
     30      18.7872      0.00000
     31      18.7872      0.00000
     32      18.7872      0.00000

[...]

 k-point 120 :       0.5000    0.5000    0.5000
  band No.  band energies     occupation
      1      -0.9729      2.00000
      2      -0.9729      2.00000
      3      -0.9729      2.00000
      4      -0.9729      2.00000
      5       1.3138      2.00000
      6       1.3138      2.00000
      7       1.3138      2.00000
      8       1.3138      2.00000
      9       1.3138      2.00000
     10       1.3138      2.00000
     11       1.3138      2.00000
     12       1.3138      2.00000
     13       2.9894      2.00000
     14       2.9894      2.00000
     15       2.9894      2.00000
     16       2.9894      2.00000
     17       2.9894      2.00000
     18       2.9894      2.00000
     19       2.9894      2.00000
     20       2.9894      2.00000
     21       3.4331      2.00000
     22       3.4331      2.00000
     23       3.4331      2.00000
     24       3.4331      2.00000
     25       9.0595      0.00000
     26       9.0595      0.00000
     27       9.0595      0.00000
     28       9.0595      0.00000
     29      27.1043      0.00000
     30      27.1043      0.00000
     31      27.1043      0.00000
     32      27.1043      0.00000

 soft charge-density along one line, spin component           1
         0         1         2         3         4         5         6         7         8         9
 total charge-density along one line

------------------------ aborting loop because EDIFF is reached ----------------------------------------

  FREE ENERGIE OF THE ION-ELECTRON SYSTEM (eV)
  free  energy   TOTEN  =       -14.526872 eV

  energy  without entropy=      -14.526777  energy(sigma->0) =      -14.526824

  FORCE on cell =-STRESS in cart. coord.  units (eV/reduce length):
  Direction    X        Y        Z        XY       YZ       ZX
  Alpha Z    480.50    480.50    480.50
  Ewald    -1525.57  -1525.57  -1525.57     -0.00      0.00      0.00
  Hartree    377.57    377.57    377.57     -0.00     -0.00     -0.00
  E(xc)     -251.68   -251.68   -251.68     -0.00     -0.00      0.00
  Local      521.59    521.59    521.59     -0.00      0.00      0.00
  n-local   -136.33   -142.56   -144.03      0.34      1.81      0.63
  augment    226.42    226.42    226.42     -0.00     -0.00     -0.00
  Kinetic    326.37    317.36    311.03     -3.32     -0.26     -1.49
  Total        6.11      6.11      6.11     -0.00     -0.00      0.00
  in kB      230.14    230.14    230.14     -0.00     -0.00      0.00

 VOLUME and BASIS-vectors are now :
  energy-cutoff  :      500.00
  volume of cell :       42.54
      direct lattice vectors                 reciprocal lattice vectors
     3.490959179  0.000000000  0.000000000     0.286454223  0.000000000  0.000000000
     0.000000000  3.490959179  0.000000000     0.000000000  0.286454223  0.000000000
     0.000000000  0.000000000  3.490959179     0.000000000  0.000000000  0.286454223

  length of vectors
     3.490959179  3.490959179  3.490959179     0.286454223  0.286454223  0.286454223

 FORCES acting on ions
    electron-ion (+dipol)            ewald-force                    non-local-force                 convergence-correction
   -.436E-13 -.486E-13 -.559E-13   0.188E-13 -.592E-15 -.181E-13   -.886E-27 -.148E-25 -.117E-25   0.251E-13 0.650E-14 0.226E-14
   0.469E-12 0.345E-11 0.217E-11   0.140E-13 -.157E-14 -.179E-13   -.103E-25 -.136E-25 0.236E-26   -.563E-13 -.476E-14 0.207E-13
   0.468E-12 -.412E-13 0.723E-11   -.253E-14 -.151E-15 0.172E-13   -.680E-26 -.552E-26 0.893E-26   -.446E-13 -.955E-14 -.699E-13
   -.432E-13 0.462E-12 0.452E-12   -.315E-13 -.113E-14 0.173E-13   -.134E-26 -.132E-25 -.246E-25   0.283E-13 0.467E-14 -.749E-13
   0.851E-12 0.382E-11 0.980E-11   -.112E-14 -.344E-14 -.157E-14   -.193E-25 -.471E-25 -.251E-25   -.475E-13 -.314E-14 -.122E-12

 POSITION                                       TOTAL-FORCE (eV/Angst)
      0.00000      0.00000      0.00000         0.000000     -0.000000      0.000000
      1.74548      1.74548      0.00000         0.000000      0.000000     -0.000000
      1.74548      0.00000      1.74548        -0.000000      0.000000      0.000000
      0.00000      1.74548      1.74548        -0.000000      0.000000      0.000000
    total drift:                                0.000000      0.000000      0.000000

 mean value of Nose-termostat <S>:     1.000 mean value of <T> :     0.000
 mean temperature <T/S>/<1/S>  :     0.000