 vasp.4.6.28 25Jul05 complex
 executed on             LinuxIFC date 2017.01.06  05:34:30

 INCAR:
 POTCAR:   PAW_PBE Au 06Sep2000
 POTCAR:   PAW_PBE Au 06Sep2000
   VRHFIN =Au: s1d10

   TITEL  = PAW_PBE Au 06Sep2000
   POMASS =  196.966; ZVAL   =   11.000    mass and valenz
   ENMAX  =  229.948; ENMIN  =  172.461 eV
   QCUT   =   -4.111; QGAM   =    8.222    optimization parameters

   Description
     l     E      TYP  RCUT    TYP  RCUT
     2   .000     23  2.500
     2   .000     23  2.500
     0   .000     23  2.500
     0   .000     23  2.500
     1  -.200     23  2.500
     1   .000     23  2.500
     3   .000      7   .000

 PAW_PBE Au 06Sep2000                   :

 POSCAR: Au
  positions in direct lattice
  velocities in cartesian coordinates

 ion  position               nearest neighbor table
   1  0.000  0.000  0.000-   2 2.98   3 2.98   4 2.98   3 2.98   4 2.98   2 2.98   4 2.98   4 2.98
                             2 2.98   3 2.98   3 2.98   2 2.98
   2  0.500  0.500  0.000-   1 2.98   3 2.98   4 2.98   3 2.98   4 2.98   1 2.98   3 2.98   3 2.98
                             1 2.98   4 2.98   4 2.98   1 2.98
   3  0.500  0.000  0.500-   1 2.98   2 2.98   4 2.98   1 2.98   2 2.98   2 2.98   4 2.98   2 2.98
                             1 2.98   4 2.98   1 2.98   4 2.98
   4  0.000  0.500  0.500-   1 2.98   2 2.98   3 2.98   1 2.98   2 2.98   1 2.98   3 2.98   1 2.98
                             2 2.98   3 2.98   2 2.98   3 2.98

  LATTYP: Found a simple cubic cell.
 ALAT       =     4.2145804213

  Lattice vectors:

 A1 = (   4.2145804213,   0.0000000000,   0.0000000000)
 A2 = (   0.0000000000,   4.2145804213,   0.0000000000)
 A3 = (   0.0000000000,   0.0000000000,   4.2145804213)
 Subroutine PRICEL returns following result:

  LATTYP: Found a face centered cubic cell.
 ALAT       =     4.2145804213

  Lattice vectors:

 A1 = (   2.1072902107,   2.1072902107,   0.0000000000)
 A2 = (   2.1072902107,   0.0000000000,  -2.1072902107)
 A3 = (   0.0000000000,   2.1072902107,  -2.1072902107)

   4 primitive cells build up your supercell.

Analysis of symmetry for initial positions (statically):

 Routine SETGRP: Setting up the symmetry group for a
 simple cubic supercell.

 Subroutine GETGRP returns: Found 48 space group operations
 (whereof 48 operations were pure point group operations)
 out of a pool of 48 trial point group operations.

The static configuration has the point symmetry O_h .

Analysis of symmetry for dynamics (positions and initial velocities):

 Subroutine DYNSYM returns: Found 48 space group operations
 (whereof 48 operations were pure point group operations)
 out of a pool of 48 trial space group operations
 (whereof 48 operations were pure point group operations)
 and found also     4 'primitive' translations

The dynamic configuration has the point symmetry O_h .

 KPOINTS: Automatic mesh

Automatic generation of k-mesh.

 Subroutine IBZKPT returns following result:

 Found     84 irreducible k-points:

 Following reciprocal coordinates:
            Coordinates               Weight
  0.000000  0.000000  0.000000      1.000000
  0.083333  0.000000  0.000000      6.000000
  0.166667  0.000000  0.000000      6.000000
  0.250000  0.000000  0.000000      6.000000
  0.333333  0.000000  0.000000      6.000000
  0.416667  0.000000  0.000000      6.000000
  0.500000  0.000000  0.000000      3.000000
  0.083333  0.083333  0.000000     12.000000
  0.166667  0.083333  0.000000     24.000000
  0.250000  0.083333  0.000000     24.000000
  0.333333  0.083333  0.000000     24.000000
  0.416667  0.083333  0.000000     24.000000
  0.500000  0.083333  0.000000     12.000000
  0.166667  0.166667  0.000000     12.000000
  0.250000  0.166667  0.000000     24.000000
  0.333333  0.166667  0.000000     24.000000
  0.416667  0.166667  0.000000     24.000000
  0.500000  0.166667  0.000000     12.000000
  0.250000  0.250000  0.000000     12.000000
  0.333333  0.250000  0.000000     24.000000
  0.416667  0.250000  0.000000     24.000000
  0.500000  0.250000  0.000000     12.000000
  0.333333  0.333333  0.000000     12.000000
  0.416667  0.333333  0.000000     24.000000
  0.500000  0.333333  0.000000     12.000000
  0.416667  0.416667  0.000000     12.000000
  0.500000  0.416667  0.000000     12.000000
  0.500000  0.500000  0.000000      3.000000
  0.083333  0.083333  0.083333      8.000000
  0.166667  0.083333  0.083333     24.000000
  0.250000  0.083333  0.083333     24.000000
  0.333333  0.083333  0.083333     24.000000
  0.416667  0.083333  0.083333     24.000000
  0.500000  0.083333  0.083333     12.000000
  0.166667  0.166667  0.083333     24.000000
  0.250000  0.166667  0.083333     48.000000
  0.333333  0.166667  0.083333     48.000000
  0.416667  0.166667  0.083333     48.000000
  0.500000  0.166667  0.083333     24.000000
  0.250000  0.250000  0.083333     24.000000
  0.333333  0.250000  0.083333     48.000000
  0.416667  0.250000  0.083333     48.000000
  0.500000  0.250000  0.083333     24.000000
  0.333333  0.333333  0.083333     24.000000
  0.416667  0.333333  0.083333     48.000000
  0.500000  0.333333  0.083333     24.000000
  0.416667  0.416667  0.083333     24.000000
  0.500000  0.416667  0.083333     24.000000
  0.500000  0.500000  0.083333      6.000000
  0.166667  0.166667  0.166667      8.000000
  0.250000  0.166667  0.166667     24.000000
  0.333333  0.166667  0.166667     24.000000
  0.416667  0.166667  0.166667     24.000000
  0.500000  0.166667  0.166667     12.000000
  0.250000  0.250000  0.166667     24.000000
  0.333333  0.250000  0.166667     48.000000
  0.416667  0.250000  0.166667     48.000000
  0.500000  0.250000  0.166667     24.000000
  0.333333  0.333333  0.166667     24.000000
  0.416667  0.333333  0.166667     48.000000
[...]
  0.416667  0.333333  0.250000     48.000000
  0.500000  0.333333  0.250000     24.000000
  0.416667  0.416667  0.250000     24.000000
  0.500000  0.416667  0.250000     24.000000
  0.500000  0.500000  0.250000      6.000000
  0.333333  0.333333  0.333333      8.000000
  0.416667  0.333333  0.333333     24.000000
  0.500000  0.333333  0.333333     12.000000
  0.416667  0.416667  0.333333     24.000000
  0.500000  0.416667  0.333333     24.000000
  0.500000  0.500000  0.333333      6.000000
  0.416667  0.416667  0.416667      8.000000
  0.500000  0.416667  0.416667     12.000000
  0.500000  0.500000  0.416667      6.000000
  0.500000  0.500000  0.500000      1.000000

 Following cartesian coordinates:
            Coordinates               Weight
  0.000000  0.000000  0.000000      1.000000
  0.019970  0.000000  0.000000      6.000000
  0.039941  0.000000  0.000000      6.000000
  0.059911  0.000000  0.000000      6.000000
  0.079881  0.000000  0.000000      6.000000
  0.099852  0.000000  0.000000      6.000000
  0.119822  0.000000  0.000000      3.000000
  0.019970  0.019970  0.000000     12.000000
  0.039941  0.019970  0.000000     24.000000
  0.059911  0.019970  0.000000     24.000000
  0.079881  0.019970  0.000000     24.000000
  0.099852  0.019970  0.000000     24.000000
  0.119822  0.019970  0.000000     12.000000
  0.039941  0.039941  0.000000     12.000000
  0.059911  0.039941  0.000000     24.000000
  0.079881  0.039941  0.000000     24.000000
  0.099852  0.039941  0.000000     24.000000
  0.119822  0.039941  0.000000     12.000000
  0.059911  0.059911  0.000000     12.000000
  0.079881  0.059911  0.000000     24.000000
  0.099852  0.059911  0.000000     24.000000
  0.119822  0.059911  0.000000     12.000000
  0.079881  0.079881  0.000000     12.000000
  0.099852  0.079881  0.000000     24.000000
  0.119822  0.079881  0.000000     12.000000
  0.099852  0.099852  0.000000     12.000000
  0.119822  0.099852  0.000000     12.000000
  0.119822  0.119822  0.000000      3.000000
  0.019970  0.019970  0.019970      8.000000
  0.039941  0.019970  0.019970     24.000000
  0.059911  0.019970  0.019970     24.000000
  0.079881  0.019970  0.019970     24.000000
  0.099852  0.019970  0.019970     24.000000
  0.119822  0.019970  0.019970     12.000000
  0.039941  0.039941  0.019970     24.000000
  0.059911  0.039941  0.019970     48.000000
  0.079881  0.039941  0.019970     48.000000
  0.099852  0.039941  0.019970     48.000000
  0.119822  0.039941  0.019970     24.000000
  0.059911  0.059911  0.019970     24.000000
  0.079881  0.059911  0.019970     48.000000
  0.099852  0.059911  0.019970     48.000000
  0.119822  0.059911  0.019970     24.000000
  0.079881  0.079881  0.019970     24.000000
  0.099852  0.079881  0.019970     48.000000
  0.119822  0.079881  0.019970     24.000000
  0.099852  0.099852  0.019970     24.000000
  0.119822  0.099852  0.019970     24.000000
  0.119822  0.119822  0.019970      6.000000
  0.039941  0.039941  0.039941      8.000000
  0.059911  0.039941  0.039941     24.000000
  0.079881  0.039941  0.039941     24.000000
  0.099852  0.039941  0.039941     24.000000
  0.119822  0.039941  0.039941     12.000000
  0.059911  0.059911  0.039941     24.000000
  0.079881  0.059911  0.039941     48.000000
  0.099852  0.059911  0.039941     48.000000
  0.119822  0.059911  0.039941     24.000000
  0.079881  0.079881  0.039941     24.000000
  0.099852  0.079881  0.039941     48.000000
[...]
  0.099852  0.079881  0.059911     48.000000
  0.119822  0.079881  0.059911     24.000000
  0.099852  0.099852  0.059911     24.000000
  0.119822  0.099852  0.059911     24.000000
  0.119822  0.119822  0.059911      6.000000
  0.079881  0.079881  0.079881      8.000000
  0.099852  0.079881  0.079881     24.000000
  0.119822  0.079881  0.079881     12.000000
  0.099852  0.099852  0.079881     24.000000
  0.119822  0.099852  0.079881     24.000000
  0.119822  0.119822  0.079881      6.000000
  0.099852  0.099852  0.099852      8.000000
  0.119822  0.099852  0.099852     12.000000
  0.119822  0.119822  0.099852      6.000000
  0.119822  0.119822  0.119822      1.000000

 I would recommend the setting:
   dimension x,y,z NGX =    38 NGY =   38 NGZ =   38
 SYSTEM =  unknown system
 POSCAR =  Au

 Startparameter for this run:
   NWRITE =      2    write-flag & timer
   PREC   = accura    medium, high low
   ISTART =      0    job   : 0-new  1-cont  2-samecut
   ICHARG =      2    charge: 1-file 2-atom 10-const
   ISPIN  =      1    spin polarized calculation?
   LNONCOLLINEAR =      F non collinear calculations
   LSORBIT =      F    spin-orbit coupling
   INIWAV =      1    electr: 0-lowe 1-rand  2-diag
   LASPH  =      F    aspherical Exc in radial PAW
   METAGGA=      F    non-selfconsistent MetaGGA calc.

 Electronic Relaxation 1
   ENCUT  =  750.0 eV  55.12 Ry    7.42 a.u.   9.41  9.41  9.41*2*pi/ulx,y,z
   ENINI  =  750.0     initial cutoff
   ENAUG  =  356.7 eV  augmentation charge cutoff
   NELM   =     60;   NELMIN=  2; NELMDL= -5     # of ELM steps
   EDIFF  = 0.1E-07   stopping-criterion for ELM
   LREAL  =      F    real-space projection
   LCOMPAT=      F    compatible to vasp.4.4
   LREAL_COMPAT= F    compatible to vasp.4.5.1-3
   GGA_COMPAT  = T    GGA compatible to vasp.4.4-vasp.4.6
   LMAXPAW     = -100 max onsite density
   LMAXMIX     =    2 max onsite mixed and CHGCAR
[...]
   0.25000000  0.25000000  0.00000000       0.007
   0.33333333  0.25000000  0.00000000       0.014
   0.41666667  0.25000000  0.00000000       0.014
   0.50000000  0.25000000  0.00000000       0.007
   0.33333333  0.33333333  0.00000000       0.007
   0.41666667  0.33333333  0.00000000       0.014
   0.50000000  0.33333333  0.00000000       0.007
   0.41666667  0.41666667  0.00000000       0.007
   0.50000000  0.41666667  0.00000000       0.007
   0.50000000  0.50000000  0.00000000       0.002
   0.08333333  0.08333333  0.08333333       0.005
   0.16666667  0.08333333  0.08333333       0.014
   0.25000000  0.08333333  0.08333333       0.014
   0.33333333  0.08333333  0.08333333       0.014
   0.41666667  0.08333333  0.08333333       0.014
   0.50000000  0.08333333  0.08333333       0.007
   0.16666667  0.16666667  0.08333333       0.014
   0.25000000  0.16666667  0.08333333       0.028
   0.33333333  0.16666667  0.08333333       0.028
   0.41666667  0.16666667  0.08333333       0.028
   0.50000000  0.16666667  0.08333333       0.014
   0.25000000  0.25000000  0.08333333       0.014
   0.33333333  0.25000000  0.08333333       0.028
   0.41666667  0.25000000  0.08333333       0.028
   0.50000000  0.25000000  0.08333333       0.014
   0.33333333  0.33333333  0.08333333       0.014
   0.41666667  0.33333333  0.08333333       0.028
   0.50000000  0.33333333  0.08333333       0.014
   0.41666667  0.41666667  0.08333333       0.014
   0.50000000  0.41666667  0.08333333       0.014
   0.50000000  0.50000000  0.08333333       0.003
   0.16666667  0.16666667  0.16666667       0.005
   0.25000000  0.16666667  0.16666667       0.014
   0.33333333  0.16666667  0.16666667       0.014
   0.41666667  0.16666667  0.16666667       0.014
   0.50000000  0.16666667  0.16666667       0.007
   0.25000000  0.25000000  0.16666667       0.014
   0.33333333  0.25000000  0.16666667       0.028
   0.41666667  0.25000000  0.16666667       0.028
   0.50000000  0.25000000  0.16666667       0.014
   0.33333333  0.33333333  0.16666667       0.014
   0.41666667  0.33333333  0.16666667       0.028
[...]
   0.41666667  0.33333333  0.25000000       0.028
   0.50000000  0.33333333  0.25000000       0.014
   0.41666667  0.41666667  0.25000000       0.014
   0.50000000  0.41666667  0.25000000       0.014
   0.50000000  0.50000000  0.25000000       0.003
   0.33333333  0.33333333  0.33333333       0.005
   0.41666667  0.33333333  0.33333333       0.014
   0.50000000  0.33333333  0.33333333       0.007
   0.41666667  0.41666667  0.33333333       0.014
   0.50000000  0.41666667  0.33333333       0.014
   0.50000000  0.50000000  0.33333333       0.003
   0.41666667  0.41666667  0.41666667       0.005
   0.50000000  0.41666667  0.41666667       0.007
   0.50000000  0.50000000  0.41666667       0.003
   0.50000000  0.50000000  0.50000000       0.001

 position of ions in fractional coordinates (direct lattice)
   0.00000000  0.00000000  0.00000000
   0.50000000  0.50000000  0.00000000
   0.50000000  0.00000000  0.50000000
   0.00000000  0.50000000  0.50000000

 position of ions in cartesian coordinates  (Angst):
   0.00000000  0.00000000  0.00000000
   2.10729021  2.10729021  0.00000000
   2.10729021  0.00000000  2.10729021
   0.00000000  2.10729021  2.10729021

 k-point  1 :  0.00000.00000.0000  plane waves:   3431
 k-point  2 :  0.08330.00000.0000  plane waves:   3475
 k-point  3 :  0.16670.00000.0000  plane waves:   3523
 k-point  4 :  0.25000.00000.0000  plane waves:   3511
 k-point  5 :  0.33330.00000.0000  plane waves:   3499
 k-point  6 :  0.41670.00000.0000  plane waves:   3490
 k-point  7 :  0.50000.00000.0000  plane waves:   3514
 k-point  8 :  0.08330.08330.0000  plane waves:   3513
 k-point  9 :  0.16670.08330.0000  plane waves:   3515
 k-point 10 :  0.25000.08330.0000  plane waves:   3494
 k-point 11 :  0.33330.08330.0000  plane waves:   3497
 k-point 12 :  0.41670.08330.0000  plane waves:   3499
 k-point 13 :  0.50000.08330.0000  plane waves:   3490
 k-point 14 :  0.16670.16670.0000  plane waves:   3501
 k-point 15 :  0.25000.16670.0000  plane waves:   3498
 k-point 16 :  0.33330.16670.0000  plane waves:   3501
 k-point 17 :  0.41670.16670.0000  plane waves:   3500
 k-point 18 :  0.50000.16670.0000  plane waves:   3478
 k-point 19 :  0.25000.25000.0000  plane waves:   3487
 k-point 20 :  0.33330.25000.0000  plane waves:   3493
 k-point 21 :  0.41670.25000.0000  plane waves:   3478
 k-point 22 :  0.50000.25000.0000  plane waves:   3476
 k-point 23 :  0.33330.33330.0000  plane waves:   3509
 k-point 24 :  0.41670.33330.0000  plane waves:   3486
 k-point 25 :  0.50000.33330.0000  plane waves:   3496
 k-point 26 :  0.41670.41670.0000  plane waves:   3492
 k-point 27 :  0.50000.41670.0000  plane waves:   3484
 k-point 28 :  0.50000.50000.0000  plane waves:   3532
 k-point 29 :  0.08330.08330.0833  plane waves:   3500
 k-point 30 :  0.16670.08330.0833  plane waves:   3518
 k-point 31 :  0.25000.08330.0833  plane waves:   3503
 k-point 32 :  0.33330.08330.0833  plane waves:   3498
 k-point 33 :  0.41670.08330.0833  plane waves:   3486
 k-point 34 :  0.50000.08330.0833  plane waves:   3480
 k-point 35 :  0.16670.16670.0833  plane waves:   3511
 k-point 36 :  0.25000.16670.0833  plane waves:   3501
 k-point 37 :  0.33330.16670.0833  plane waves:   3496
 k-point 38 :  0.41670.16670.0833  plane waves:   3493
 k-point 39 :  0.50000.16670.0833  plane waves:   3484
 k-point 40 :  0.25000.25000.0833  plane waves:   3514
 k-point 41 :  0.33330.25000.0833  plane waves:   3498
 k-point 42 :  0.41670.25000.0833  plane waves:   3481
 k-point 43 :  0.50000.25000.0833  plane waves:   3480
 k-point 44 :  0.33330.33330.0833  plane waves:   3496
 k-point 45 :  0.41670.33330.0833  plane waves:   3484
 k-point 46 :  0.50000.33330.0833  plane waves:   3496
 k-point 47 :  0.41670.41670.0833  plane waves:   3487
 k-point 48 :  0.50000.41670.0833  plane waves:   3490
 k-point 49 :  0.50000.50000.0833  plane waves:   3504
 k-point 50 :  0.16670.16670.1667  plane waves:   3488
 k-point 51 :  0.25000.16670.1667  plane waves:   3494
 k-point 52 :  0.33330.16670.1667  plane waves:   3507
 k-point 53 :  0.41670.16670.1667  plane waves:   3492
 k-point 54 :  0.50000.16670.1667  plane waves:   3496
 k-point 55 :  0.25000.25000.1667  plane waves:   3499
 k-point 56 :  0.33330.25000.1667  plane waves:   3499
 k-point 57 :  0.41670.25000.1667  plane waves:   3480
 k-point 58 :  0.50000.25000.1667  plane waves:   3484
 k-point 59 :  0.33330.33330.1667  plane waves:   3477
 k-point 60 :  0.41670.33330.1667  plane waves:   3485
[...]
 k-point 70 :  0.41670.33330.2500  plane waves:   3487
 k-point 71 :  0.50000.33330.2500  plane waves:   3480
 k-point 72 :  0.41670.41670.2500  plane waves:   3484
 k-point 73 :  0.50000.41670.2500  plane waves:   3478
 k-point 74 :  0.50000.50000.2500  plane waves:   3492
 k-point 75 :  0.33330.33330.3333  plane waves:   3476
 k-point 76 :  0.41670.33330.3333  plane waves:   3488
 k-point 77 :  0.50000.33330.3333  plane waves:   3484
 k-point 78 :  0.41670.41670.3333  plane waves:   3483
 k-point 79 :  0.50000.41670.3333  plane waves:   3488
 k-point 80 :  0.50000.50000.3333  plane waves:   3476
 k-point 81 :  0.41670.41670.4167  plane waves:   3470
 k-point 82 :  0.50000.41670.4167  plane waves:   3482
 k-point 83 :  0.50000.50000.4167  plane waves:   3496
 k-point 84 :  0.50000.50000.5000  plane waves:   3448

 maximum and minimum number of plane-waves per node :   3532  3431

 maximum number of plane-waves:   3532
 maximal index in each direction:
   IXMAX=  9   IYMAX=  9   IZMAX=  9
   IXMIN= -9   IYMIN= -9   IZMIN= -9

 NGX is ok and might be reduce to  38
 NGY is ok and might be reduce to  38
 NGZ is ok and might be reduce to  38

 parallel 3dFFT wavefunction:
    minimum data exchange during FFTs selected (reduces bandwidth)
 parallel 3dFFT charge:
    minimum data exchange during FFTs selected (reduces bandwidth)

Broyden mixing: mesh for mixing (old mesh)
   NGX = 19   NGY = 19   NGZ = 19
  (NGX  = 80   NGY  = 80   NGZ  = 80)
 gives a total of   6859 points
 initial charge density was supplied:
 charge density of overlapping atoms calculated
 number of electron   44.0000000 magnetization
 keeping initial charge density in first step

 Maximum index for augmentation-charges       101675 (set IRDMAX)

 First call to EWALD:  gamma=   0.421
 Maximum number of real-space cells 3x 3x 3
 Maximum number of reciprocal cells 3x 3x 3

----------------------------------------- Iteration    1(   1)  ---------------------------------------

 eigenvalue-minimisations  :  4704
 total energy-change (2. order) : 0.5345766E+03  (-0.2698524E+04)
 number of electron   44.0000000 magnetization
 augmentation part    44.0000000 magnetization

 Free energy of the ion-electron system (eV)
  alpha Z        PSCENC =       400.27003392
  Ewald energy   TEWEN  =     -3790.90912546
  -1/2 Hartree   DENC   =      -544.62571654
  -V(xc)+E(xc)   XCENC  =        60.19449499
  PAW double counting   =      2990.04966927    -2896.51663641
  entropy T*S    EENTRO =        -0.00028664
  eigenvalues    EBANDS =       611.89043119
  atomic energy  EATOM  =      3704.22372399
  free energy    TOTEN  =       534.57658831 eV

  energy without entropy =      534.57687495  energy(sigma->0) =      534.57673163

[...]

 eigenvalue-minimisations  :  4736
 total energy-change (2. order) :-0.5250961E+03  (-0.4990265E+03)
 number of electron   44.0000000 magnetization
 augmentation part    44.0000000 magnetization

[...]

 Broyden mixing:
  rms(total) = 0.56526E+00    rms(broyden)= 0.56526E+00
  rms(prec ) = 0.14273E+01
  weight for this iteration     100.00

[...]

 eigenvalues of (default mixing * dielectric matrix)
  average eigenvalue GAMMA=   1.1954
  1.1954

[...]

 eigenvalue-minimisations  :  4996
 total energy-change (2. order) :-0.1187176E-05  (-0.1264715E-06)
 number of electron   44.0000001 magnetization
 augmentation part    16.2032359 magnetization

[...]

 Broyden mixing:
  rms(total) = 0.23206E-05    rms(broyden)= 0.23206E-05
  rms(prec ) = 0.30132E-05
  weight for this iteration     100.00

 eigenvalues of (default mixing * dielectric matrix)
  average eigenvalue GAMMA=   1.8640
  2.8691  2.8691  2.5123  2.5123  1.1233  0.9812  1.0223  1.0223

[...]

----------------------------------------- Iteration    1(  14)  ---------------------------------------

 eigenvalue-minimisations  :  2540
 total energy-change (2. order) : 0.4174581E-09  (-0.8885585E-11)
 number of electron   44.0000001 magnetization
 augmentation part    16.2032626 magnetization

 Free energy of the ion-electron system (eV)
  alpha Z        PSCENC =       400.27003392
  Ewald energy   TEWEN  =     -3790.90912546
  -1/2 Hartree   DENC   =      -501.91681180
  -V(xc)+E(xc)   XCENC  =        58.26719731
  PAW double counting   =      2978.92201819    -2894.39950823
  entropy T*S    EENTRO =        -0.00013939
  eigenvalues    EBANDS =        32.47965669
  atomic energy  EATOM  =      3704.22372399
  free energy    TOTEN  =       -13.06295479 eV

  energy without entropy =      -13.06281540  energy(sigma->0) =      -13.06288509

 average (electrostatic) potential at core
  the test charge radii are     1.2098
  (the norm of the test charge is              1.0000)
       1 -46.3939       2 -46.3939       3 -46.3939       4 -46.3939

 E-fermi :   4.6048     XC(G=0): -12.1639     alpha+bet : -9.2726
   add alpha+bet to get absolut eigen values

 k-point   1 :       0.0000    0.0000    0.0000
  band No.  band energies     occupation
      1      -4.3006      2.00000
      2      -1.6841      2.00000
      3      -1.6841      2.00000
      4      -1.6841      2.00000
      5      -1.4237      2.00000
      6      -1.4237      2.00000
      7      -1.4237      2.00000
      8       0.3362      2.00000
      9       0.3362      2.00000
     10       0.3362      2.00000
     11       1.6225      2.00000
     12       1.6225      2.00000
     13       2.6009      2.00000
     14       2.6009      2.00000
     15       2.6009      2.00000
     16       2.9114      2.00000
     17       2.9114      2.00000
     18       2.9114      2.00000
     19       2.9114      2.00000
     20       2.9114      2.00000
     21       2.9114      2.00000
     22       5.8849      0.00000
     23       5.8849      0.00000
     24       5.8849      0.00000
     25       9.7014      0.00000
     26       9.7014      0.00000
     27       9.7014      0.00000
     28      14.4998      0.00000

[...]

 k-point  84 :       0.5000    0.5000    0.5000
  band No.  band energies     occupation
      1      -1.9331      2.00000
      2      -1.9331      2.00000
      3      -1.9331      2.00000
      4      -1.9331      2.00000
      5       0.3105      2.00000
      6       0.3105      2.00000
      7       0.3105      2.00000
      8       0.3105      2.00000
      9       0.3105      2.00000
     10       0.3105      2.00000
     11       0.3105      2.00000
     12       0.3105      2.00000
     13       2.6405      2.00000
     14       2.6405      2.00000
     15       2.6405      2.00000
     16       2.6405      2.00000
     17       2.6405      2.00000
     18       2.6405      2.00000
     19       2.6405      2.00000
     20       2.6405      2.00000
     21       4.0558      2.00000
     22       4.0558      2.00000
     23       4.0558      2.00000
     24       4.0558      2.00000
     25       7.2182      0.00000
     26       7.2182      0.00000
     27       7.2182      0.00000
     28       7.2182      0.00000

 soft charge-density along one line, spin component           1
         0         1         2         3         4         5         6         7         8         9
 total charge-density along one line

------------------------ aborting loop because EDIFF is reached ----------------------------------------

  FREE ENERGIE OF THE ION-ELECTRON SYSTEM (eV)
  free  energy   TOTEN  =       -13.062955 eV

  energy  without entropy=      -13.062815  energy(sigma->0) =      -13.062885

  FORCE on cell =-STRESS in cart. coord.  units (eV/reduce length):
  Direction    X        Y        Z        XY       YZ       ZX
  Alpha Z    400.27    400.27    400.27
  Ewald    -1263.64  -1263.64  -1263.64      0.00     -0.00     -0.00
  Hartree    167.31    167.31    167.31     -0.00     -0.00     -0.00
  E(xc)     -197.90   -197.90   -197.90      0.00      0.00      0.00
  Local      312.20    312.20    312.20      0.00      0.00     -0.00
  n-local   -190.57   -207.27   -211.43      1.31      5.27      2.03
  augment    171.96    171.96    171.96     -0.00     -0.00     -0.00
  Kinetic    615.39    611.36    606.87     -4.06     -1.79     -2.51
  Total       -1.69     -1.69     -1.69      0.00     -0.00      0.00
  in kB      -36.21    -36.21    -36.21      0.00     -0.00      0.00

 VOLUME and BASIS-vectors are now :
  energy-cutoff  :      750.00
  volume of cell :       74.86
      direct lattice vectors                 reciprocal lattice vectors
     4.214580421  0.000000000  0.000000000     0.237271543  0.000000000  0.000000000
     0.000000000  4.214580421  0.000000000     0.000000000  0.237271543  0.000000000
     0.000000000  0.000000000  4.214580421     0.000000000  0.000000000  0.237271543

  length of vectors
     4.214580421  4.214580421  4.214580421     0.237271543  0.237271543  0.237271543

 FORCES acting on ions
    electron-ion (+dipol)            ewald-force                    non-local-force                 convergence-correction
   0.152E-13 0.125E-13 0.422E-14   -.396E-13 -.101E-13 -.698E-15   0.000E+00 -.258E-24 -.775E-25   -.421E-13 -.647E-13 -.523E-13
   -.447E-13 -.735E-12 -.195E-11   0.298E-14 0.636E-14 -.944E-15   -.310E-24 0.517E-25 0.000E+00   0.908E-14 0.277E-13 -.515E-13
   -.457E-13 0.125E-13 -.268E-11   0.589E-14 -.739E-14 0.290E-14   0.103E-24 0.517E-25 0.646E-25   0.657E-14 -.660E-13 0.290E-13
   0.153E-13 -.460E-13 -.537E-13   0.319E-13 0.903E-14 0.265E-14   0.258E-25 -.194E-25 0.323E-24   -.426E-13 0.226E-13 0.269E-13
   -.599E-13 -.756E-12 -.468E-11   0.118E-14 -.206E-14 0.390E-14   -.181E-24 -.174E-24 0.310E-24   -.691E-13 -.805E-13 -.480E-13

 POSITION                                       TOTAL-FORCE (eV/Angst)
      0.00000      0.00000      0.00000         0.000000      0.000000      0.000000
      2.10729      2.10729      0.00000         0.000000      0.000000     -0.000000
      2.10729      0.00000      2.10729        -0.000000      0.000000      0.000000
      0.00000      2.10729      2.10729        -0.000000     -0.000000     -0.000000
    total drift:                               -0.000000     -0.000000     -0.000000

 mean value of Nose-termostat <S>:     1.000 mean value of <T> :     0.000
 mean temperature <T/S>/<1/S>  :     0.000