 vasp.4.6.28 25Jul05 complex
 executed on             LinuxIFC date 2017.01.06  18:04:42

 INCAR:
 POTCAR:   PAW_PBE Au 06Sep2000
 POTCAR:   PAW_PBE Au 06Sep2000
   VRHFIN =Au: s1d10

   TITEL  = PAW_PBE Au 06Sep2000
   POMASS =  196.966; ZVAL   =   11.000    mass and valenz
   ENMAX  =  229.948; ENMIN  =  172.461 eV
   QCUT   =   -4.111; QGAM   =    8.222    optimization parameters

   Description
     l     E      TYP  RCUT    TYP  RCUT
     2   .000     23  2.500
     2   .000     23  2.500
     0   .000     23  2.500
     0   .000     23  2.500
     1  -.200     23  2.500
     1   .000     23  2.500
     3   .000      7   .000

 PAW_PBE Au 06Sep2000                   :

 POSCAR: No title
  positions in direct lattice

 ion  position               nearest neighbor table
   1  0.750  0.750  0.500-   3 3.04  14 3.04  19 3.04  20 3.04   5 3.04  26 3.04  11 3.04   6 3.04
                            18 3.04  29 3.04  10 3.04   8 3.04
   2  0.750  0.750  0.000-  12 3.02  10 3.04   8 3.04  22 3.04  27 3.04  11 3.04  18 3.04  26 3.04
                             5 3.04  32 3.04   3 3.04  20 3.04
   3  0.750  0.000  0.250-  12 3.02   5 3.04   9 3.04   1 3.04  28 3.04  19 3.04  18 3.04   6 3.04
                            27 3.04  13 3.04   4 3.04   2 3.04
   4  0.750  0.250  0.500-   6 3.04   8 3.04  10 3.04  29 3.04  13 3.04  31 3.04  21 3.04  28 3.04
                            14 3.04  19 3.04   3 3.04  20 3.04
   5  0.000  0.750  0.250-   3 3.04  14 3.04  25 3.04  15 3.04   1 3.04   2 3.04   7 3.04  16 3.04
                            10 3.04  22 3.04   6 3.04  12 3.04
   6  0.000  0.000  0.500-   4 3.04   7 3.04  11 3.04  13 3.04   8 3.04  16 3.04   1 3.04   3 3.04
                            17 3.04  23 3.04  21 3.04   5 3.04
   7  0.250  0.750  0.500-   6 3.04  16 3.04  29 3.04  30 3.04  11 3.04  18 3.04  19 3.04  26 3.04
                             5 3.04  14 3.04  25 3.04  23 3.04
   8  0.750  0.000  0.750-  12 3.02   4 3.04  11 3.04   2 3.04  31 3.04  27 3.04   6 3.04  26 3.04
                            19 3.04  21 3.04   9 3.04   1 3.04
   9  0.750  0.250  0.000-  12 3.02   3 3.04  20 3.04  32 3.04  28 3.04  21 3.04  27 3.04  13 3.04
                            31 3.04  22 3.04  10 3.04   8 3.04
  10  0.750  0.500  0.250-   2 3.04   4 3.04  13 3.04  18 3.04  22 3.04  29 3.04  14 3.04  28 3.04
                             5 3.04  32 3.04   9 3.04   1 3.04
  11  0.000  0.750  0.750-   6 3.04   8 3.04  22 3.04  30 3.04   7 3.04   2 3.04  20 3.04   1 3.04
                            23 3.04  15 3.04  14 3.04  12 3.04
  12  0.998  0.000  0.000-   3 3.02   9 3.02   8 3.02   2 3.02   5 3.04  21 3.04  11 3.04  13 3.04
                            15 3.05  23 3.05  16 3.05  24 3.05
  13  0.000  0.250  0.250-   6 3.04  10 3.04  16 3.04  22 3.04   4 3.04  24 3.04  17 3.04   3 3.04
                             9 3.04  25 3.04  14 3.04  12 3.04
  14  0.000  0.500  0.500-   1 3.04   5 3.04  17 3.04  21 3.04  20 3.04  25 3.04   7 3.04  10 3.04
                             4 3.04  30 3.04  13 3.04  11 3.04
  15  0.250  0.750  0.000-  23 3.04  25 3.04  32 3.04  26 3.04   5 3.04  18 3.04  22 3.04  27 3.04
                            11 3.04  30 3.04  16 3.04  12 3.05
  16  0.250  0.000  0.250-   7 3.04  13 3.04  18 3.04  24 3.04   6 3.04  27 3.04   5 3.04  19 3.04
                            28 3.04  17 3.04  15 3.04  12 3.05
  17  0.250  0.250  0.500-  14 3.04  19 3.04  23 3.04  25 3.04  21 3.04  28 3.04   6 3.04  13 3.04
                            29 3.04  31 3.04  30 3.04  16 3.04
  18  0.500  0.750  0.250-  10 3.04  16 3.04  27 3.04  29 3.04   2 3.04   7 3.04   1 3.04  25 3.04
                             3 3.04  15 3.04  19 3.04  32 3.04
  19  0.500  0.000  0.500-   1 3.04  17 3.04  26 3.04  28 3.04   3 3.04  23 3.04   4 3.04   7 3.04
                             8 3.04  16 3.04  18 3.04  31 3.04
  20  0.750  0.500  0.750-   1 3.04   9 3.04  21 3.04  26 3.04  14 3.04  32 3.04  11 3.04  29 3.04
                            31 3.04  22 3.04   4 3.04   2 3.04
  21  0.000  0.250  0.750-  14 3.04  20 3.04  23 3.04   9 3.04  17 3.04   8 3.04   4 3.04  24 3.04
                            30 3.04  22 3.04   6 3.04  12 3.04
  22  0.000  0.500  0.000-   2 3.04  11 3.04  13 3.04  24 3.04  10 3.04  30 3.04  20 3.04   9 3.04
                            25 3.04  15 3.04  21 3.04   5 3.04
  23  0.250  0.000  0.750-  15 3.04  17 3.04  21 3.04  26 3.04  19 3.04  11 3.04   6 3.04  27 3.04
                            31 3.04  24 3.04   7 3.04  12 3.05
  24  0.250  0.250  0.000-  16 3.04  22 3.04  27 3.04  30 3.04  13 3.04  31 3.04  21 3.04  28 3.04
                            32 3.04  25 3.04  23 3.04  12 3.05
  25  0.250  0.500  0.250-   5 3.04  15 3.04  17 3.04  28 3.04  14 3.04  32 3.04  22 3.04  13 3.04
                            29 3.04  18 3.04  24 3.04   7 3.04
  26  0.500  0.750  0.750-  19 3.04  20 3.04  23 3.04  32 3.04   1 3.04  15 3.04   8 3.04   2 3.04
                            30 3.04   7 3.04  27 3.04  29 3.04
  27  0.500  0.000  0.000-   2 3.04  18 3.04  24 3.04  31 3.04  16 3.04   8 3.04   9 3.04  23 3.04
                            15 3.04   3 3.04  28 3.04  26 3.04
  28  0.500  0.250  0.250-   3 3.04  19 3.04  25 3.04  32 3.04  17 3.04   9 3.04  10 3.04  24 3.04
                            16 3.04   4 3.04  29 3.04  27 3.04
  29  0.500  0.500  0.500-   4 3.04   7 3.04  18 3.04  31 3.04  30 3.04  10 3.04  20 3.04  25 3.04
                            17 3.04   1 3.04  26 3.04  28 3.04
  30  0.250  0.500  0.750-   7 3.04  11 3.04  24 3.04  31 3.04  29 3.04  22 3.04  26 3.04  14 3.04
                            21 3.04  32 3.04  17 3.04  15 3.04
  31  0.500  0.250  0.750-   8 3.04  27 3.04  29 3.04  30 3.04  24 3.04   4 3.04   9 3.04  17 3.04
                            20 3.04  23 3.04  19 3.04  32 3.04
  32  0.500  0.500  0.000-   9 3.04  15 3.04  26 3.04  28 3.04  20 3.04  25 3.04   2 3.04  10 3.04
                            24 3.04  30 3.04  18 3.04  31 3.04

  LATTYP: Found a simple cubic cell.
 ALAT       =     8.5854088100

  Lattice vectors:

 A1 = (   8.5854088100,   0.0000000000,   0.0000000000)
 A2 = (   0.0000001600,   8.5854088100,   0.0000000000)
 A3 = (   0.0000001600,   0.0000001600,   8.5854088100)
 Subroutine PRICEL returns:
 Original cell was already a primitive cell.

Analysis of symmetry for initial positions (statically):

 Routine SETGRP: Setting up the symmetry group for a
 simple cubic supercell.

 Subroutine GETGRP returns: Found  8 space group operations
 (whereof  8 operations were pure point group operations)
 out of a pool of 48 trial point group operations.

The static configuration has the point symmetry C_4v.

Analysis of symmetry for dynamics (positions and initial velocities):

 Subroutine DYNSYM returns: Found  8 space group operations
 (whereof  8 operations were pure point group operations)
 out of a pool of  8 trial space group operations
 (whereof  8 operations were pure point group operations)
 and found also     1 'primitive' translations

The dynamic configuration has the point symmetry C_4v.

 KPOINTS: Automatic mesh

Automatic generation of k-mesh.

 Subroutine IBZKPT returns following result:

 Found      1 irreducible k-points:

 Following reciprocal coordinates:
            Coordinates               Weight
  0.250000  0.250000  0.250000      8.000000

 Following cartesian coordinates:
            Coordinates               Weight
  0.029119  0.029119  0.029119      8.000000

 I would recommend the setting:
   dimension x,y,z NGX =    47 NGY =   47 NGZ =   47
 SYSTEM =  No title
 POSCAR =  No title

 Startparameter for this run:
   NWRITE =      2    write-flag & timer
   PREC   = normal    medium, high low
   ISTART =      1    job   : 0-new  1-cont  2-samecut
   ICHARG =      0    charge: 1-file 2-atom 10-const
   ISPIN  =      1    spin polarized calculation?
   LNONCOLLINEAR =      F non collinear calculations
   LSORBIT =      F    spin-orbit coupling
   INIWAV =      1    electr: 0-lowe 1-rand  2-diag
   LASPH  =      F    aspherical Exc in radial PAW
   METAGGA=      F    non-selfconsistent MetaGGA calc.

 Electronic Relaxation 1
   ENCUT  =  500.0 eV  36.75 Ry    6.06 a.u.  15.65 15.65 15.65*2*pi/ulx,y,z
   ENINI  =  500.0     initial cutoff
   ENAUG  =  356.7 eV  augmentation charge cutoff
   NELM   =     60;   NELMIN=  2; NELMDL=  0     # of ELM steps
   EDIFF  = 0.1E-04   stopping-criterion for ELM
   LREAL  =      F    real-space projection
   LCOMPAT=      F    compatible to vasp.4.4
   LREAL_COMPAT= F    compatible to vasp.4.5.1-3
   GGA_COMPAT  = T    GGA compatible to vasp.4.4-vasp.4.6
   LMAXPAW     = -100 max onsite density
   LMAXMIX     =    2 max onsite mixed and CHGCAR
   VOSKOWN=      1    Vosko Wilk Nusair interpolation
   ROPT   =    0.00000
 Ionic relaxation
   EDIFFG = -.2E-01   stopping-criterion for IOM
   NSW    =      0    number of steps for IOM
   NBLOCK =      1;   KBLOCK =      1    inner block; outer block
   IBRION =     -1    ionic relax: 0-MD 1-quasi-New 2-CG
   NFREE  =      0    steps in history (QN), initial steepest desc. (CG)
   ISIF   =      2    stress and relaxation
   IWAVPR =     10    prediction:  0-non 1-charg 2-wave 3-comb
   ISYM   =      2    0-nonsym 1-usesym 2-fastsym
   LCORR  =      T    Harris-Foulkes like correction to forces

   POTIM  =   0.50    time-step for ionic-motion
   TEIN   =    0.0    initial temperature
   TEBEG  =    0.0;   TEEND  =   0.0 temperature during run
   SMASS  =  -3.00    Nose mass-parameter (am)
   estimated Nose-frequenzy (Omega)   =  0.10E-29 period in steps =****** mass=  -0.168E-26a.u.
   NPACO  =    256;   APACO  = 16.0  distance and # of slots for P.C.
   PSTRESS=    0.0 pullay stress

  Mass of Ions in am
   POMASS = 196.97
  Ionic Valenz
   ZVAL   =  11.00
  Atomic Wigner-Seitz radii
   NELECT =     352.0000    total number of electrons
   NUPDOWN=      -1.0000    fix difference up-down

 DOS related values:
   EMIN   =  10.00;   EMAX   =-10.00  energy-range for DOS
   ISMEAR =     1;   SIGMA  =   0.20  broadening in eV -4-tet -1-fermi 0-gaus

 Electronic relaxation 2 (details)
   IALGO  =     38    algorithm
   LDIAG  =      T    sub-space diagonalisation
   IMIX   =      4    mixing-type and parameters
     AMIX     =   0.40;   BMIX     =  1.00
     AMIX_MAG =   1.60;   BMIX_MAG =  1.00
     AMIN     =   0.10
     WC   =   100.;   INIMIX=   1;  MIXPRE=   1

 Intra band minimization:
   WEIMIN = 0.0000     energy-eigenvalue tresh-hold
   EBREAK =  0.12E-07  absolut break condition
   DEPER  =   0.30     relativ break condition

   TIME   =   0.10     timestep for ELM

  volume/ion in A,a.u.               =      19.78       133.45
  Fermi-wavevector in a.u.,eV,Ry     =   1.346361 24.663103  1.812687

 Second variation
   LSECVAR=     F    do a second variation

 Write flags
   LWAVE  =      F    write WAVECAR
   LCHARG =      F    write CHGCAR
   LVTOT  =      F    write LOCPOT, local potential
   LELF   =      F    write electronic localiz. function (ELF)
   LORBIT =      0    0 simple, 1 ext, 2 COOP (PROOUT)

 Dipole corrections
   IDIPOL =      0    1-x, 2-y, 3-z
   LDIPOL =      F    correct potential

 Static calculation
[...]
   2.14635232  0.00000012  6.43905661
   2.14635224  2.14635220  0.00000000
   2.14635232  4.29270445  2.14635220
   4.29270465  6.43905673  6.43905661
   4.29270441  0.00000000  0.00000000
   4.29270448  2.14635224  2.14635220
   4.29270457  4.29270449  4.29270441
   2.14635240  4.29270453  6.43905661
   4.29270457  2.14635232  6.43905661
   4.29270449  4.29270441  0.00000000

 k-point  1 :  0.25000.25000.2500  plane waves:  16056

 maximum and minimum number of plane-waves per node :  16056 16056

 maximum number of plane-waves:  16056
 maximal index in each direction:
   IXMAX= 15   IYMAX= 15   IZMAX= 15
   IXMIN=-15   IYMIN=-15   IZMIN=-15

 WARNING: wrap around error must be expected set NGX to  62
 WARNING: wrap around error must be expected set NGY to  62
 WARNING: wrap around error must be expected set NGZ to  62

 parallel 3dFFT wavefunction:
    minimum data exchange during FFTs selected (reduces bandwidth)
 parallel 3dFFT charge:
    minimum data exchange during FFTs selected (reduces bandwidth)

Broyden mixing: mesh for mixing (old mesh)
   NGX = 31   NGY = 31   NGZ = 31
  (NGX  = 96   NGY  = 96   NGZ  = 96)
 gives a total of  29791 points
 charge density for first step will be calculated from the start-wavefunctions

 Maximum index for augmentation-charges         2599 (set IRDMAX)

 initial charge from wavefunction
 First call to EWALD:  gamma=   0.206
 Maximum number of real-space cells 3x 3x 3
 Maximum number of reciprocal cells 3x 3x 3

----------------------------------------- Iteration    1(   1)  ---------------------------------------

 eigenvalue-minimisations  :   432
 total energy-change (2. order) :-0.1021158E+03  (-0.3525008E+00)
 number of electron  352.0000129 magnetization
 augmentation part   129.9344144 magnetization

 Broyden mixing:
  rms(total) = 0.98777E-01    rms(broyden)= 0.98774E-01
  rms(prec ) = 0.24491E+00
  weight for this iteration     100.00

 Free energy of the ion-electron system (eV)
  alpha Z        PSCENC =      3030.49204843
  Ewald energy   TEWEN  =    -29775.27116657
  -1/2 Hartree   DENC   =     -4263.71314443
  -V(xc)+E(xc)   XCENC  =       461.14169359
  PAW double counting   =     23688.95212750   -23004.49610734
  entropy T*S    EENTRO =        -0.17062895
  eigenvalues    EBANDS =       127.27060601
  atomic energy  EATOM  =     29633.67881556
  free energy    TOTEN  =      -102.11575620 eV

  energy without entropy =     -101.94512725  energy(sigma->0) =     -102.05887988

[...]

 eigenvalue-minimisations  :   584
 total energy-change (2. order) : 0.7459241E-01  (-0.2743847E-01)
 number of electron  352.0000129 magnetization
 augmentation part   129.9354871 magnetization

[...]

 eigenvalues of (default mixing * dielectric matrix)
  average eigenvalue GAMMA=   1.0357
  1.0357

[...]

 eigenvalue-minimisations  :   528
 total energy-change (2. order) : 0.1869524E-04  (-0.4685606E-04)
 number of electron  352.0000129 magnetization
 augmentation part   129.9331494 magnetization

 Broyden mixing:
  rms(total) = 0.43885E-02    rms(broyden)= 0.43885E-02
  rms(prec ) = 0.53563E-02
  weight for this iteration     100.00

 eigenvalues of (default mixing * dielectric matrix)
  average eigenvalue GAMMA=   1.3452
  2.4434  1.3012  0.8182  0.8182

[...]

----------------------------------------- Iteration    1(   6)  ---------------------------------------

 eigenvalue-minimisations  :   452
 total energy-change (2. order) :-0.6648526E-05  (-0.9735216E-05)
 number of electron  352.0000129 magnetization
 augmentation part   129.9331494 magnetization

 Free energy of the ion-electron system (eV)
  alpha Z        PSCENC =      3030.49204843
  Ewald energy   TEWEN  =    -29775.27116657
  -1/2 Hartree   DENC   =     -4264.04109479
  -V(xc)+E(xc)   XCENC  =       461.15158069
  PAW double counting   =     23689.28538067   -23004.82044840
  entropy T*S    EENTRO =        -0.17186333
  eigenvalues    EBANDS =       127.65939699
  atomic energy  EATOM  =     29633.67881556
  free energy    TOTEN  =      -102.03735075 eV

  energy without entropy =     -101.86548742  energy(sigma->0) =     -101.98006298

 average (electrostatic) potential at core
  the test charge radii are     1.2098
  (the norm of the test charge is              1.0000)
       1 -46.8070       2 -46.8089       3 -46.8089       4 -46.8070       5 -46.8066
       6 -46.8062       7 -46.8066       8 -46.8089       9 -46.8089      10 -46.8070
      11 -46.8066      12 -46.8063      13 -46.8066      14 -46.8062      15 -46.8048
      16 -46.8048      17 -46.8066      18 -46.8067      19 -46.8062      20 -46.8070
      21 -46.8066      22 -46.8062      23 -46.8048      24 -46.8048      25 -46.8066
      26 -46.8067      27 -46.8062      28 -46.8067      29 -46.8062      30 -46.8066
      31 -46.8067      32 -46.8062

 E-fermi :   3.8405     XC(G=0): -11.8375     alpha+bet : -8.7755
   add alpha+bet to get absolut eigen values

 k-point   1 :       0.2500    0.2500    0.2500
  band No.  band energies     occupation
      1      -3.9293      2.00000
      2      -2.8154      2.00000
      3      -2.8124      2.00000
      4      -2.8094      2.00000
      5      -2.1520      2.00000
      6      -2.0784      2.00000
      7      -2.0761      2.00000
      8      -2.0740      2.00000
      9      -1.7907      2.00000
     10      -1.7904      2.00000
     11      -1.7902      2.00000
     12      -1.6388      2.00000
     13      -1.6385      2.00000
     14      -1.6384      2.00000
     15      -1.5769      2.00000
     16      -1.5747      2.00000
     17      -1.5726      2.00000
     18      -1.3804      2.00000
     19      -1.3798      2.00000
     20      -1.3793      2.00000
     21      -1.2591      2.00000
     22      -1.2582      2.00000
     23      -1.2560      2.00000
     24      -1.2559      2.00000
     25      -1.2538      2.00000
     26      -1.2529      2.00000
     27      -1.1670      2.00000
     28      -1.1648      2.00000
     29      -1.1628      2.00000
     30      -1.1153      2.00000
     31      -1.1136      2.00000
     32      -1.1126      2.00000
     33      -1.1126      2.00000
     34      -1.1117      2.00000
     35      -1.1100      2.00000
     36      -1.0041      2.00000
     37      -1.0029      2.00000
     38      -1.0018      2.00000
     39      -0.7574      2.00000
     40      -0.7559      2.00000
     41      -0.7548      2.00000
     42      -0.7548      2.00000
     43      -0.7536      2.00000
     44      -0.7524      2.00000
     45      -0.4804      2.00000
     46      -0.4788      2.00000
     47      -0.4772      2.00000
     48      -0.4107      2.00000
     49      -0.4089      2.00000
     50      -0.4072      2.00000
     51      -0.3474      2.00000
     52      -0.3455      2.00000
     53      -0.3447      2.00000
     54      -0.3446      2.00000
     55      -0.3439      2.00000
     56      -0.3418      2.00000
     57      -0.2258      2.00000
     58      -0.2236      2.00000
     59      -0.2218      2.00000
     60      -0.1991      2.00000
[...]
    198       8.3255     -0.00000
    199       8.7754     -0.00000
    200       8.7755     -0.00000
    201       8.7779     -0.00000
    202       8.7779     -0.00000
    203       8.7803     -0.00000
    204       8.7804     -0.00000
    205       9.5406      0.00000
    206       9.8614      0.00000
    207       9.8617      0.00000
    208       9.8620      0.00000
    209      10.3424      0.00000
    210      10.3439      0.00000
    211      10.3455      0.00000
    212      10.3459      0.00000

 soft charge-density along one line, spin component           1
         0         1         2         3         4         5         6         7         8         9
 total charge-density along one line

------------------------ aborting loop because EDIFF is reached ----------------------------------------

  FREE ENERGIE OF THE ION-ELECTRON SYSTEM (eV)
  free  energy   TOTEN  =      -102.037351 eV

  energy  without entropy=     -101.865487  energy(sigma->0) =     -101.980063

  FORCE on cell =-STRESS in cart. coord.  units (eV/reduce length):
  Direction    X        Y        Z        XY       YZ       ZX
  Alpha Z   3030.49   3030.49   3030.49
  Ewald    -9925.22  -9925.09  -9925.09     -0.00     -0.00     -0.00
  Hartree   1421.29   1421.37   1421.37     -0.00     -0.00     -0.00
  E(xc)    -1579.30  -1579.30  -1579.30     -0.00     -0.00     -0.00
  Local     2415.17   2414.95   2414.95      0.00      0.00      0.00
  n-local  -1655.27  -1655.27  -1655.27      9.00      8.99      9.00
  augment   1375.30   1375.30   1375.30     -0.00     -0.00     -0.00
  Kinetic   4887.21   4887.21   4887.21     -6.24     -6.25     -6.24
  Total      -30.33    -30.33    -30.33     -0.00     -0.00     -0.00
  in kB      -76.79    -76.79    -76.79     -0.00     -0.00     -0.00

 VOLUME and BASIS-vectors are now :
  energy-cutoff  :      500.00
  volume of cell :      632.82
      direct lattice vectors                 reciprocal lattice vectors
     8.585408810  0.000000000  0.000000000     0.116476690 -0.000000002 -0.000000002
     0.000000160  8.585408810  0.000000000     0.000000000  0.116476690 -0.000000002
     0.000000160  0.000000160  8.585408810     0.000000000  0.000000000  0.116476690

  length of vectors
     8.585408810  8.585408810  8.585408810     0.116476690  0.116476690  0.116476690

 FORCES acting on ions
    electron-ion (+dipol)            ewald-force                    non-local-force                 convergence-correction
   0.277E-01 0.143E+00 -.138E-07   -.263E-01 -.143E+00 0.148E-07   0.175E-02 -.139E-02 -.678E-20   -.391E-02 0.324E-02 0.649E-09
   0.910E+00 0.177E+01 -.959E-08   -.904E+00 -.175E+01 0.282E-09   -.450E-02 0.257E-02 0.949E-19   -.895E-02 -.353E-01 -.449E-09
   0.910E+00 -.304E-07 -.177E+01   -.904E+00 0.323E-07 0.175E+01   -.450E-02 -.479E-10 -.257E-02   -.895E-02 0.975E-09 0.353E-01
   0.277E-01 -.143E+00 0.789E-08   -.263E-01 0.143E+00 -.865E-08   0.175E-02 0.139E-02 0.000E+00   -.391E-02 -.324E-02 -.177E-09
   -.114E+01 -.783E-02 0.783E-02   0.113E+01 0.826E-02 -.826E-02   -.511E-02 -.317E-03 0.317E-03   0.203E-01 -.976E-04 0.976E-04
   -.588E+00 0.254E-08 0.403E-07   0.598E+00 -.164E-08 -.441E-07   -.851E-02 0.383E-19 0.000E+00   -.373E-03 0.621E-09 -.174E-08
   0.327E-01 -.143E+00 0.756E-08   -.317E-01 0.143E+00 -.830E-08   0.177E-02 0.141E-02 0.542E-19   -.363E-02 -.336E-02 -.167E-09
   0.910E+00 0.234E-07 0.177E+01   -.904E+00 -.323E-07 -.175E+01   -.450E-02 0.479E-10 0.257E-02   -.895E-02 -.111E-08 -.353E-01
   0.910E+00 -.177E+01 0.265E-08   -.904E+00 0.175E+01 -.282E-09   -.450E-02 -.257E-02 -.108E-18   -.895E-02 0.353E-01 0.318E-09
   0.277E-01 0.522E-08 -.143E+00   -.263E-01 -.598E-08 0.143E+00   0.175E-02 0.260E-10 0.139E-02   -.391E-02 -.238E-09 -.324E-02
   -.114E+01 -.783E-02 -.783E-02   0.113E+01 0.826E-02 0.826E-02   -.511E-02 -.317E-03 -.317E-03   0.203E-01 -.976E-04 -.976E-04
   -.719E+01 0.115E-06 -.209E-05   0.715E+01 -.127E-06 -.127E-06   0.615E-01 -.196E-19 0.000E+00   0.276E-01 0.204E-08 0.204E-08
   -.114E+01 0.783E-02 0.783E-02   0.113E+01 -.826E-02 -.826E-02   -.511E-02 0.317E-03 0.317E-03   0.203E-01 0.976E-04 0.976E-04
   -.245E+00 0.111E-07 0.111E-07   0.247E+00 -.117E-07 -.117E-07   0.426E-03 0.509E-20 0.000E+00   0.296E-03 -.756E-09 -.756E-09
   0.920E+00 -.174E+01 0.248E-08   -.915E+00 0.172E+01 -.254E-09   -.398E-02 -.256E-02 0.000E+00   -.822E-02 0.310E-01 0.359E-09
   0.920E+00 0.230E-07 0.174E+01   -.915E+00 -.318E-07 -.172E+01   -.398E-02 0.477E-10 0.256E-02   -.822E-02 -.101E-08 -.310E-01
   0.327E-01 0.143E+00 -.140E-07   -.317E-01 -.143E+00 0.151E-07   0.177E-02 -.141E-02 -.373E-19   -.363E-02 0.336E-02 0.568E-09
   0.632E+00 0.277E-02 -.277E-02   -.634E+00 -.247E-02 0.247E-02   0.497E-02 0.947E-05 -.947E-05   -.442E-02 -.296E-03 0.296E-03
   0.472E+00 -.234E-08 -.266E-07   -.469E+00 0.162E-08 0.279E-07   -.124E-01 -.567E-20 0.108E-18   0.153E-01 -.828E-09 0.128E-08
   0.277E-01 -.111E-07 0.143E+00   -.263E-01 0.121E-07 -.143E+00   0.175E-02 -.260E-10 -.139E-02   -.391E-02 0.710E-09 0.324E-02
   -.114E+01 0.783E-02 -.783E-02   0.113E+01 -.826E-02 0.826E-02   -.511E-02 0.317E-03 -.317E-03   0.203E-01 0.976E-04 -.976E-04
   -.588E+00 0.403E-07 0.254E-08   0.598E+00 -.441E-07 -.164E-08   -.851E-02 -.226E-20 0.108E-18   -.372E-03 -.174E-08 0.621E-09
   0.920E+00 -.300E-07 -.174E+01   -.915E+00 0.318E-07 0.172E+01   -.398E-02 -.477E-10 -.256E-02   -.822E-02 0.938E-09 0.310E-01
   0.920E+00 0.174E+01 -.942E-08   -.915E+00 -.172E+01 0.310E-09   -.398E-02 0.256E-02 0.407E-19   -.822E-02 -.310E-01 -.427E-09
   0.327E-01 -.114E-07 0.143E+00   -.317E-01 0.124E-07 -.143E+00   0.177E-02 -.263E-10 -.141E-02   -.363E-02 0.630E-09 0.336E-02
   0.632E+00 0.277E-02 0.277E-02   -.634E+00 -.247E-02 -.247E-02   0.497E-02 0.947E-05 0.947E-05   -.442E-02 -.296E-03 -.296E-03
   0.191E+01 -.552E-08 -.552E-08   -.189E+01 0.217E-08 0.217E-08   0.176E-01 -.509E-21 0.000E+00   -.511E-01 -.143E-08 -.143E-08
   0.632E+00 -.277E-02 -.277E-02   -.634E+00 0.247E-02 0.247E-02   0.497E-02 -.947E-05 -.947E-05   -.442E-02 0.296E-03 0.296E-03
   0.223E+00 -.979E-08 -.978E-08   -.231E+00 0.103E-07 0.103E-07   0.261E-02 0.264E-20 0.000E+00   0.275E-02 0.681E-09 0.682E-09
   0.327E-01 0.490E-08 -.143E+00   -.317E-01 -.564E-08 0.143E+00   0.177E-02 0.263E-10 0.141E-02   -.363E-02 -.229E-09 -.336E-02
   0.632E+00 -.277E-02 0.277E-02   -.634E+00 0.247E-02 -.247E-02   0.497E-02 -.947E-05 0.947E-05   -.442E-02 0.296E-03 -.296E-03
   0.472E+00 -.266E-07 -.234E-08   -.469E+00 0.279E-07 0.162E-08   -.124E-01 -.497E-19 0.000E+00   0.153E-01 0.128E-08 -.828E-09
   0.950E-02 -.869E-10 -.220E-05   -.100E-12 -.912E-13 -.101E-12   0.199E-01 -.207E-17 -.542E-18   -.259E-01 0.409E-09 0.409E-09

 POSITION                                       TOTAL-FORCE (eV/Angst)
      6.43906      6.43906      4.29270        -0.000882      0.001822      0.000000
      6.43906      6.43906      0.00000        -0.007990     -0.009746     -0.000000
      6.43906      0.00000      2.14635        -0.007990      0.000000      0.009746
      6.43906      2.14635      4.29270        -0.000882     -0.001822     -0.000000
      0.00000      6.43906      2.14635         0.005423      0.000009     -0.000009
      0.00000      0.00000      4.29270         0.000555     -0.000000     -0.000000
      2.14635      6.43906      4.29270        -0.000904     -0.001816      0.000000
      6.43906      0.00000      6.43906        -0.007990     -0.000000     -0.009746
      6.43906      2.14635      0.00000        -0.007990      0.009746     -0.000000
      6.43906      4.29270      2.14635        -0.000882     -0.000000     -0.001822
      0.00000      6.43906      6.43906         0.005423      0.000009      0.000009
      8.56540      0.00000      0.00000         0.047929     -0.000000      0.000000
      0.00000      2.14635      2.14635         0.005423     -0.000009     -0.000009
      0.00000      4.29270      4.29270         0.002496      0.000000     -0.000000
      2.14635      6.43906      0.00000        -0.007220      0.008653      0.000000
      2.14635      0.00000      2.14635        -0.007220     -0.000000     -0.008653
      2.14635      2.14635      4.29270        -0.000904      0.001816      0.000000
      4.29270      6.43906      2.14635        -0.001670      0.000008     -0.000008
      4.29270      0.00000      4.29270         0.005315     -0.000000     -0.000000
      6.43906      4.29270      6.43906        -0.000882      0.000000      0.001822
      0.00000      2.14635      6.43906         0.005423     -0.000009      0.000009
      0.00000      4.29270      0.00000         0.000555      0.000000     -0.000000
      2.14635      0.00000      6.43906        -0.007220      0.000000      0.008653
      2.14635      2.14635      0.00000        -0.007220     -0.008653     -0.000000
      2.14635      4.29270      2.14635        -0.000904      0.000000      0.001816
      4.29270      6.43906      6.43906        -0.001670      0.000008      0.000008
      4.29270      0.00000      0.00000        -0.006498     -0.000000      0.000000
      4.29270      2.14635      2.14635        -0.001670     -0.000008     -0.000008
      4.29270      4.29270      4.29270        -0.002696      0.000000      0.000000
      2.14635      4.29270      6.43906        -0.000904     -0.000000     -0.001816
      4.29270      2.14635      6.43906        -0.001670     -0.000008      0.000008
      4.29270      4.29270      0.00000         0.005315      0.000000      0.000000
    total drift:                                0.003494      0.000000     -0.000002

 mean value of Nose-termostat <S>:     1.000 mean value of <T> :     0.000
 mean temperature <T/S>/<1/S>  :     0.000