 vasp.4.6.28 25Jul05 complex
 executed on             LinuxIFC date 2017.01.14  06:23:52

 INCAR:
 POTCAR:   PAW_PBE Au 06Sep2000
 POTCAR:   PAW_PBE Au 06Sep2000
   VRHFIN =Au: s1d10

   TITEL  = PAW_PBE Au 06Sep2000
   POMASS =  196.966; ZVAL   =   11.000    mass and valenz
   ENMAX  =  229.948; ENMIN  =  172.461 eV
   QCUT   =   -4.111; QGAM   =    8.222    optimization parameters

   Description
     l     E      TYP  RCUT    TYP  RCUT
     2   .000     23  2.500
     2   .000     23  2.500
     0   .000     23  2.500
     0   .000     23  2.500
     1  -.200     23  2.500
     1   .000     23  2.500
     3   .000      7   .000

 WARNING: PSMAXN for non-local potential too small
          PSMAXN should be >   16.2007969712021       NTYP=           1
 PAW_PBE Au 06Sep2000                   :

 POSCAR: Au
  positions in direct lattice
  velocities in cartesian coordinates

 ion  position               nearest neighbor table
   1  0.000  0.000  0.000-   2 3.13   3 3.13   4 3.13   3 3.13   4 3.13   2 3.13   4 3.13   4 3.13
                             2 3.13   3 3.13   3 3.13   2 3.13
   2  0.500  0.500  0.000-   1 3.13   3 3.13   4 3.13   3 3.13   4 3.13   1 3.13   3 3.13   3 3.13
                             1 3.13   4 3.13   4 3.13   1 3.13
   3  0.500  0.000  0.500-   1 3.13   2 3.13   4 3.13   1 3.13   2 3.13   2 3.13   4 3.13   2 3.13
                             1 3.13   4 3.13   1 3.13   4 3.13
   4  0.000  0.500  0.500-   1 3.13   2 3.13   3 3.13   1 3.13   2 3.13   1 3.13   3 3.13   1 3.13
                             2 3.13   3 3.13   2 3.13   3 3.13

  LATTYP: Found a simple cubic cell.
 ALAT       =     4.4238691251

  Lattice vectors:

 A1 = (   4.4238691251,   0.0000000000,   0.0000000000)
 A2 = (   0.0000000000,   4.4238691251,   0.0000000000)
 A3 = (   0.0000000000,   0.0000000000,   4.4238691251)
 Subroutine PRICEL returns following result:

  LATTYP: Found a face centered cubic cell.
 ALAT       =     4.4238691251

  Lattice vectors:

 A1 = (   2.2119345626,   2.2119345626,   0.0000000000)
 A2 = (   2.2119345626,   0.0000000000,  -2.2119345626)
 A3 = (   0.0000000000,   2.2119345626,  -2.2119345626)

   4 primitive cells build up your supercell.

Analysis of symmetry for initial positions (statically):

 Routine SETGRP: Setting up the symmetry group for a
 simple cubic supercell.

 Subroutine GETGRP returns: Found 48 space group operations
 (whereof 48 operations were pure point group operations)
 out of a pool of 48 trial point group operations.

The static configuration has the point symmetry O_h .

Analysis of symmetry for dynamics (positions and initial velocities):

 Subroutine DYNSYM returns: Found 48 space group operations
 (whereof 48 operations were pure point group operations)
 out of a pool of 48 trial space group operations
 (whereof 48 operations were pure point group operations)
 and found also     4 'primitive' translations

The dynamic configuration has the point symmetry O_h .

 KPOINTS: Automatic mesh

Automatic generation of k-mesh.

 Subroutine IBZKPT returns following result:

 Found   1330 irreducible k-points:

 Following reciprocal coordinates:
            Coordinates               Weight
  0.000000  0.000000  0.000000      1.000000
  0.027778  0.000000  0.000000      6.000000
  0.055556  0.000000  0.000000      6.000000
  0.083333  0.000000  0.000000      6.000000
  0.111111  0.000000  0.000000      6.000000
  0.138889  0.000000  0.000000      6.000000
  0.166667  0.000000  0.000000      6.000000
  0.194444  0.000000  0.000000      6.000000
  0.222222  0.000000  0.000000      6.000000
  0.250000  0.000000  0.000000      6.000000
  0.277778  0.000000  0.000000      6.000000
  0.305556  0.000000  0.000000      6.000000
  0.333333  0.000000  0.000000      6.000000
  0.361111  0.000000  0.000000      6.000000
  0.388889  0.000000  0.000000      6.000000
  0.416667  0.000000  0.000000      6.000000
  0.444444  0.000000  0.000000      6.000000
  0.472222  0.000000  0.000000      6.000000
  0.500000  0.000000  0.000000      3.000000
  0.027778  0.027778  0.000000     12.000000
  0.055556  0.027778  0.000000     24.000000
  0.083333  0.027778  0.000000     24.000000
  0.111111  0.027778  0.000000     24.000000
  0.138889  0.027778  0.000000     24.000000
  0.166667  0.027778  0.000000     24.000000
  0.194444  0.027778  0.000000     24.000000
  0.222222  0.027778  0.000000     24.000000
  0.250000  0.027778  0.000000     24.000000
  0.277778  0.027778  0.000000     24.000000
  0.305556  0.027778  0.000000     24.000000
  0.333333  0.027778  0.000000     24.000000
  0.361111  0.027778  0.000000     24.000000
  0.388889  0.027778  0.000000     24.000000
  0.416667  0.027778  0.000000     24.000000
  0.444444  0.027778  0.000000     24.000000
  0.472222  0.027778  0.000000     24.000000
  0.500000  0.027778  0.000000     12.000000
  0.055556  0.055556  0.000000     12.000000
  0.083333  0.055556  0.000000     24.000000
  0.111111  0.055556  0.000000     24.000000
  0.138889  0.055556  0.000000     24.000000
  0.166667  0.055556  0.000000     24.000000
  0.194444  0.055556  0.000000     24.000000
  0.222222  0.055556  0.000000     24.000000
  0.250000  0.055556  0.000000     24.000000
  0.277778  0.055556  0.000000     24.000000
  0.305556  0.055556  0.000000     24.000000
  0.333333  0.055556  0.000000     24.000000
  0.361111  0.055556  0.000000     24.000000
  0.388889  0.055556  0.000000     24.000000
  0.416667  0.055556  0.000000     24.000000
  0.444444  0.055556  0.000000     24.000000
  0.472222  0.055556  0.000000     24.000000
  0.500000  0.055556  0.000000     12.000000
  0.083333  0.083333  0.000000     12.000000
  0.111111  0.083333  0.000000     24.000000
  0.138889  0.083333  0.000000     24.000000
  0.166667  0.083333  0.000000     24.000000
  0.194444  0.083333  0.000000     24.000000
  0.222222  0.083333  0.000000     24.000000
[...]
  0.472222  0.444444  0.416667     48.000000
  0.500000  0.444444  0.416667     24.000000
  0.472222  0.472222  0.416667     24.000000
  0.500000  0.472222  0.416667     24.000000
  0.500000  0.500000  0.416667      6.000000
  0.444444  0.444444  0.444444      8.000000
  0.472222  0.444444  0.444444     24.000000
  0.500000  0.444444  0.444444     12.000000
  0.472222  0.472222  0.444444     24.000000
  0.500000  0.472222  0.444444     24.000000
  0.500000  0.500000  0.444444      6.000000
  0.472222  0.472222  0.472222      8.000000
  0.500000  0.472222  0.472222     12.000000
  0.500000  0.500000  0.472222      6.000000
  0.500000  0.500000  0.500000      1.000000

 Following cartesian coordinates:
            Coordinates               Weight
  0.000000  0.000000  0.000000      1.000000
  0.006656  0.000000  0.000000      6.000000
  0.013312  0.000000  0.000000      6.000000
  0.019967  0.000000  0.000000      6.000000
  0.026623  0.000000  0.000000      6.000000
  0.033279  0.000000  0.000000      6.000000
  0.039935  0.000000  0.000000      6.000000
  0.046591  0.000000  0.000000      6.000000
  0.053247  0.000000  0.000000      6.000000
  0.059902  0.000000  0.000000      6.000000
  0.066558  0.000000  0.000000      6.000000
  0.073214  0.000000  0.000000      6.000000
  0.079870  0.000000  0.000000      6.000000
  0.086526  0.000000  0.000000      6.000000
  0.093181  0.000000  0.000000      6.000000
  0.099837  0.000000  0.000000      6.000000
  0.106493  0.000000  0.000000      6.000000
  0.113149  0.000000  0.000000      6.000000
  0.119805  0.000000  0.000000      3.000000
  0.006656  0.006656  0.000000     12.000000
  0.013312  0.006656  0.000000     24.000000
  0.019967  0.006656  0.000000     24.000000
  0.026623  0.006656  0.000000     24.000000
  0.033279  0.006656  0.000000     24.000000
  0.039935  0.006656  0.000000     24.000000
  0.046591  0.006656  0.000000     24.000000
  0.053247  0.006656  0.000000     24.000000
  0.059902  0.006656  0.000000     24.000000
  0.066558  0.006656  0.000000     24.000000
  0.073214  0.006656  0.000000     24.000000
  0.079870  0.006656  0.000000     24.000000
  0.086526  0.006656  0.000000     24.000000
  0.093181  0.006656  0.000000     24.000000
  0.099837  0.006656  0.000000     24.000000
  0.106493  0.006656  0.000000     24.000000
  0.113149  0.006656  0.000000     24.000000
  0.119805  0.006656  0.000000     12.000000
  0.013312  0.013312  0.000000     12.000000
  0.019967  0.013312  0.000000     24.000000
  0.026623  0.013312  0.000000     24.000000
  0.033279  0.013312  0.000000     24.000000
  0.039935  0.013312  0.000000     24.000000
  0.046591  0.013312  0.000000     24.000000
  0.053247  0.013312  0.000000     24.000000
  0.059902  0.013312  0.000000     24.000000
  0.066558  0.013312  0.000000     24.000000
  0.073214  0.013312  0.000000     24.000000
  0.079870  0.013312  0.000000     24.000000
  0.086526  0.013312  0.000000     24.000000
  0.093181  0.013312  0.000000     24.000000
  0.099837  0.013312  0.000000     24.000000
  0.106493  0.013312  0.000000     24.000000
  0.113149  0.013312  0.000000     24.000000
  0.119805  0.013312  0.000000     12.000000
  0.019967  0.019967  0.000000     12.000000
  0.026623  0.019967  0.000000     24.000000
  0.033279  0.019967  0.000000     24.000000
  0.039935  0.019967  0.000000     24.000000
  0.046591  0.019967  0.000000     24.000000
  0.053247  0.019967  0.000000     24.000000
[...]
  0.113149  0.106493  0.099837     48.000000
  0.119805  0.106493  0.099837     24.000000
  0.113149  0.113149  0.099837     24.000000
  0.119805  0.113149  0.099837     24.000000
  0.119805  0.119805  0.099837      6.000000
  0.106493  0.106493  0.106493      8.000000
  0.113149  0.106493  0.106493     24.000000
  0.119805  0.106493  0.106493     12.000000
  0.113149  0.113149  0.106493     24.000000
  0.119805  0.113149  0.106493     24.000000
  0.119805  0.119805  0.106493      6.000000
  0.113149  0.113149  0.113149      8.000000
  0.119805  0.113149  0.113149     12.000000
  0.119805  0.119805  0.113149      6.000000
  0.119805  0.119805  0.119805      1.000000

 I would recommend the setting:
   dimension x,y,z NGX =    46 NGY =   46 NGZ =   46
 SYSTEM =  unknown system
 POSCAR =  Au

 Startparameter for this run:
   NWRITE =      2    write-flag & timer
   PREC   = accura    medium, high low
   ISTART =      0    job   : 0-new  1-cont  2-samecut
   ICHARG =      2    charge: 1-file 2-atom 10-const
   ISPIN  =      1    spin polarized calculation?
   LNONCOLLINEAR =      F non collinear calculations
   LSORBIT =      F    spin-orbit coupling
   INIWAV =      1    electr: 0-lowe 1-rand  2-diag
   LASPH  =      F    aspherical Exc in radial PAW
   METAGGA=      F    non-selfconsistent MetaGGA calc.

 Electronic Relaxation 1
   ENCUT  = 1000.0 eV  73.50 Ry    8.57 a.u.  11.41 11.41 11.41*2*pi/ulx,y,z
   ENINI  = 1000.0     initial cutoff
   ENAUG  =  356.7 eV  augmentation charge cutoff
   NELM   =     60;   NELMIN=  2; NELMDL= -5     # of ELM steps
   EDIFF  = 0.1E-07   stopping-criterion for ELM
   LREAL  =      F    real-space projection
   LCOMPAT=      F    compatible to vasp.4.4
   LREAL_COMPAT= F    compatible to vasp.4.5.1-3
   GGA_COMPAT  = T    GGA compatible to vasp.4.4-vasp.4.6
[...]
 k-point 29 :  0.27780.02780.0000  plane waves:   6219
 k-point 30 :  0.30560.02780.0000  plane waves:   6220
 k-point 31 :  0.33330.02780.0000  plane waves:   6229
 k-point 32 :  0.36110.02780.0000  plane waves:   6232
 k-point 33 :  0.38890.02780.0000  plane waves:   6235
 k-point 34 :  0.41670.02780.0000  plane waves:   6234
 k-point 35 :  0.44440.02780.0000  plane waves:   6235
 k-point 36 :  0.47220.02780.0000  plane waves:   6224
 k-point 37 :  0.50000.02780.0000  plane waves:   6228
 k-point 38 :  0.05560.05560.0000  plane waves:   6211
 k-point 39 :  0.08330.05560.0000  plane waves:   6216
 k-point 40 :  0.11110.05560.0000  plane waves:   6214
 k-point 41 :  0.13890.05560.0000  plane waves:   6216
 k-point 42 :  0.16670.05560.0000  plane waves:   6218
 k-point 43 :  0.19440.05560.0000  plane waves:   6230
 k-point 44 :  0.22220.05560.0000  plane waves:   6226
 k-point 45 :  0.25000.05560.0000  plane waves:   6220
 k-point 46 :  0.27780.05560.0000  plane waves:   6217
 k-point 47 :  0.30560.05560.0000  plane waves:   6225
 k-point 48 :  0.33330.05560.0000  plane waves:   6221
 k-point 49 :  0.36110.05560.0000  plane waves:   6234
 k-point 50 :  0.38890.05560.0000  plane waves:   6236
 k-point 51 :  0.41670.05560.0000  plane waves:   6232
 k-point 52 :  0.44440.05560.0000  plane waves:   6238
 k-point 53 :  0.47220.05560.0000  plane waves:   6228
 k-point 54 :  0.50000.05560.0000  plane waves:   6228
 k-point 55 :  0.08330.08330.0000  plane waves:   6212
 k-point 56 :  0.11110.08330.0000  plane waves:   6215
 k-point 57 :  0.13890.08330.0000  plane waves:   6220
 k-point 58 :  0.16670.08330.0000  plane waves:   6226
 k-point 59 :  0.19440.08330.0000  plane waves:   6232
 k-point 60 :  0.22220.08330.0000  plane waves:   6235
[...]
 k-point 85 :  0.50000.11110.0000  plane waves:   6232
 k-point 86 :  0.13890.13890.0000  plane waves:   6220
 k-point 87 :  0.16670.13890.0000  plane waves:   6238
 k-point 88 :  0.19440.13890.0000  plane waves:   6233
 k-point 89 :  0.22220.13890.0000  plane waves:   6227
 k-point 90 :  0.25000.13890.0000  plane waves:   6228
 k-point 91 :  0.27780.13890.0000  plane waves:   6230
 k-point 92 :  0.30560.13890.0000  plane waves:   6222
 k-point 93 :  0.33330.13890.0000  plane waves:   6227
 k-point 94 :  0.36110.13890.0000  plane waves:   6232
 k-point 95 :  0.38890.13890.0000  plane waves:   6223
 k-point 96 :  0.41670.13890.0000  plane waves:   6218
 k-point 97 :  0.44440.13890.0000  plane waves:   6220
 k-point 98 :  0.47220.13890.0000  plane waves:   6225
 k-point 99 :  0.50000.13890.0000  plane waves:   6238
 k-point ** :  0.16670.16670.0000  plane waves:   6246
 k-point ** :  0.19440.16670.0000  plane waves:   6226
 k-point ** :  0.22220.16670.0000  plane waves:   6215
 k-point ** :  0.25000.16670.0000  plane waves:   6225
 k-point ** :  0.27780.16670.0000  plane waves:   6229
 k-point ** :  0.30560.16670.0000  plane waves:   6226
 k-point ** :  0.33330.16670.0000  plane waves:   6216
 k-point ** :  0.36110.16670.0000  plane waves:   6223
 k-point ** :  0.38890.16670.0000  plane waves:   6225
 k-point ** :  0.41670.16670.0000  plane waves:   6225
 k-point ** :  0.44440.16670.0000  plane waves:   6220
 k-point ** :  0.47220.16670.0000  plane waves:   6228
 k-point ** :  0.50000.16670.0000  plane waves:   6224
 k-point ** :  0.19440.19440.0000  plane waves:   6212
 k-point ** :  0.22220.19440.0000  plane waves:   6212
 k-point ** :  0.25000.19440.0000  plane waves:   6222
 k-point ** :  0.27780.19440.0000  plane waves:   6216
 k-point ** :  0.30560.19440.0000  plane waves:   6220
 k-point ** :  0.33330.19440.0000  plane waves:   6227
 k-point ** :  0.36110.19440.0000  plane waves:   6222
 k-point ** :  0.38890.19440.0000  plane waves:   6233
 k-point ** :  0.41670.19440.0000  plane waves:   6235
 k-point ** :  0.44440.19440.0000  plane waves:   6228
 k-point ** :  0.47220.19440.0000  plane waves:   6228
 k-point ** :  0.50000.19440.0000  plane waves:   6228
 k-point ** :  0.22220.22220.0000  plane waves:   6226
 k-point ** :  0.25000.22220.0000  plane waves:   6217
 k-point ** :  0.27780.22220.0000  plane waves:   6221
 k-point ** :  0.30560.22220.0000  plane waves:   6217
 k-point ** :  0.33330.22220.0000  plane waves:   6227
 k-point ** :  0.36110.22220.0000  plane waves:   6222
 k-point ** :  0.38890.22220.0000  plane waves:   6227
 k-point ** :  0.41670.22220.0000  plane waves:   6225
 k-point ** :  0.44440.22220.0000  plane waves:   6216
 k-point ** :  0.47220.22220.0000  plane waves:   6222
 k-point ** :  0.50000.22220.0000  plane waves:   6224
 k-point ** :  0.25000.25000.0000  plane waves:   6202
 k-point ** :  0.27780.25000.0000  plane waves:   6217
 k-point ** :  0.30560.25000.0000  plane waves:   6215
 k-point ** :  0.33330.25000.0000  plane waves:   6217
 k-point ** :  0.36110.25000.0000  plane waves:   6212
 k-point ** :  0.38890.25000.0000  plane waves:   6211
 k-point ** :  0.41670.25000.0000  plane waves:   6223
 k-point ** :  0.44440.25000.0000  plane waves:   6221
 k-point ** :  0.47220.25000.0000  plane waves:   6218
 k-point ** :  0.50000.25000.0000  plane waves:   6212
 k-point ** :  0.27780.27780.0000  plane waves:   6222
 k-point ** :  0.30560.27780.0000  plane waves:   6219
 k-point ** :  0.33330.27780.0000  plane waves:   6215
 k-point ** :  0.36110.27780.0000  plane waves:   6211
 k-point ** :  0.38890.27780.0000  plane waves:   6210
 k-point ** :  0.41670.27780.0000  plane waves:   6210
 k-point ** :  0.44440.27780.0000  plane waves:   6205
 k-point ** :  0.47220.27780.0000  plane waves:   6213
 k-point ** :  0.50000.27780.0000  plane waves:   6216
 k-point ** :  0.30560.30560.0000  plane waves:   6218
 k-point ** :  0.33330.30560.0000  plane waves:   6227
 k-point ** :  0.36110.30560.0000  plane waves:   6213
 k-point ** :  0.38890.30560.0000  plane waves:   6211
 k-point ** :  0.41670.30560.0000  plane waves:   6214
[...]
 k-point ** :  0.47220.44440.4167  plane waves:   6164
 k-point ** :  0.50000.44440.4167  plane waves:   6164
 k-point ** :  0.47220.47220.4167  plane waves:   6172
 k-point ** :  0.50000.47220.4167  plane waves:   6172
 k-point ** :  0.50000.50000.4167  plane waves:   6180
 k-point ** :  0.44440.44440.4444  plane waves:   6167
 k-point ** :  0.47220.44440.4444  plane waves:   6171
 k-point ** :  0.50000.44440.4444  plane waves:   6174
 k-point ** :  0.47220.47220.4444  plane waves:   6177
 k-point ** :  0.50000.47220.4444  plane waves:   6178
 k-point ** :  0.50000.50000.4444  plane waves:   6180
 k-point ** :  0.47220.47220.4722  plane waves:   6179
 k-point ** :  0.50000.47220.4722  plane waves:   6164
 k-point ** :  0.50000.50000.4722  plane waves:   6152
 k-point ** :  0.50000.50000.5000  plane waves:   6152

 maximum and minimum number of plane-waves per node :   6246  6152

 maximum number of plane-waves:   6246
 maximal index in each direction:
   IXMAX= 11   IYMAX= 11   IZMAX= 11
   IXMIN=-11   IYMIN=-11   IZMIN=-11

 NGX is ok and might be reduce to  46
 NGY is ok and might be reduce to  46
 NGZ is ok and might be reduce to  46

 parallel 3dFFT wavefunction:
    minimum data exchange during FFTs selected (reduces bandwidth)
 parallel 3dFFT charge:
    minimum data exchange during FFTs selected (reduces bandwidth)

Broyden mixing: mesh for mixing (old mesh)
   NGX = 23   NGY = 23   NGZ = 23
  (NGX  = 96   NGY  = 96   NGZ  = 96)
 gives a total of  12167 points
 initial charge density was supplied:
 charge density of overlapping atoms calculated
 number of electron   44.0000000 magnetization
 keeping initial charge density in first step

 Maximum index for augmentation-charges        76001 (set IRDMAX)

 First call to EWALD:  gamma=   0.401
 Maximum number of real-space cells 3x 3x 3
 Maximum number of reciprocal cells 3x 3x 3

----------------------------------------- Iteration    1(   1)  ---------------------------------------

 eigenvalue-minimisations  : 85120
 total energy-change (2. order) : 0.5721875E+03  (-0.3054471E+04)
 number of electron   44.0000000 magnetization
 augmentation part    44.0000000 magnetization

 Free energy of the ion-electron system (eV)
  alpha Z        PSCENC =       346.10613915
  Ewald energy   TEWEN  =     -3611.56510902
  -1/2 Hartree   DENC   =      -623.90648913
  -V(xc)+E(xc)   XCENC  =        58.52159529
  PAW double counting   =      2990.04966927    -2896.51663641
  entropy T*S    EENTRO =        -0.00013203
  eigenvalues    EBANDS =       605.27278795
  atomic energy  EATOM  =      3704.22571103
  free energy    TOTEN  =       572.18753611 eV

  energy without entropy =      572.18766814  energy(sigma->0) =      572.18760212

[...]

 eigenvalue-minimisations  : 85136
 total energy-change (2. order) :-0.5642675E+03  (-0.5184779E+03)
 number of electron   44.0000000 magnetization
 augmentation part    44.0000000 magnetization

[...]

 eigenvalue-minimisations  :100304
 total energy-change (2. order) :-0.2088238E+02  (-0.2036256E+02)
 number of electron   44.0000000 magnetization
 augmentation part    44.0000000 magnetization

[...]

 Broyden mixing:
  rms(total) = 0.51397E+00    rms(broyden)= 0.51397E+00
  rms(prec ) = 0.12910E+01
  weight for this iteration     100.00

[...]

 eigenvalues of (default mixing * dielectric matrix)
  average eigenvalue GAMMA=   1.1084
  1.1084

[...]

 eigenvalue-minimisations  :100592
 total energy-change (2. order) :-0.1097287E-03  (-0.2379398E-04)
 number of electron   44.0000001 magnetization
 augmentation part    16.3169448 magnetization

[...]

 eigenvalue-minimisations  : 56176
 total energy-change (2. order) :-0.1070612E-07  (-0.2076294E-10)
 number of electron   44.0000001 magnetization
 augmentation part    16.3157262 magnetization

 Broyden mixing:
  rms(total) = 0.11960E-05    rms(broyden)= 0.11960E-05
  rms(prec ) = 0.16791E-05
  weight for this iteration     100.00

 eigenvalues of (default mixing * dielectric matrix)
  average eigenvalue GAMMA=   1.7782
  2.9584  2.9584  2.5120  2.5120  1.0102  1.0850  1.0560  1.0560  0.8557

[...]

----------------------------------------- Iteration    1(  15)  ---------------------------------------

 eigenvalue-minimisations  : 55024
 total energy-change (2. order) : 0.4432877E-08  (-0.3950965E-11)
 number of electron   44.0000001 magnetization
 augmentation part    16.3157262 magnetization

 Free energy of the ion-electron system (eV)
  alpha Z        PSCENC =       346.10613915
  Ewald energy   TEWEN  =     -3611.56510902
  -1/2 Hartree   DENC   =      -583.18163984
  -V(xc)+E(xc)   XCENC  =        56.64677067
  PAW double counting   =      2933.31348741    -2846.24735701
  entropy T*S    EENTRO =        -0.00005992
  eigenvalues    EBANDS =       -11.63634791
  atomic energy  EATOM  =      3704.22571103
  free energy    TOTEN  =       -12.33840544 eV

  energy without entropy =      -12.33834552  energy(sigma->0) =      -12.33837548

 average (electrostatic) potential at core
  the test charge radii are     1.2098
  (the norm of the test charge is              1.0000)
       1 -47.5069       2 -47.5069       3 -47.5069       4 -47.5069

 E-fermi :   3.0517     XC(G=0): -11.3284     alpha+bet : -8.0178
   add alpha+bet to get absolut eigen values

 k-point   1 :       0.0000    0.0000    0.0000
  band No.  band energies     occupation
      1      -4.5395      2.00000
      2      -2.1587      2.00000
      3      -2.1587      2.00000
      4      -2.1587      2.00000
      5      -1.9633      2.00000
      6      -1.9633      2.00000
      7      -1.9633      2.00000
      8      -0.5971      2.00000
      9      -0.5971      2.00000
     10      -0.5971      2.00000
     11       0.3912      2.00000
     12       0.3912      2.00000
     13       1.1430      2.00000
     14       1.1430      2.00000
     15       1.1430      2.00000
     16       1.3838      2.00000
     17       1.3838      2.00000
     18       1.3838      2.00000
     19       1.3838      2.00000
     20       1.3838      2.00000
     21       1.3838      2.00000
     22       4.6956      0.00000
     23       4.6956      0.00000
     24       4.6956      0.00000
     25       7.1803      0.00000
     26       7.1803      0.00000
     27       7.1803      0.00000
     28      12.4474      0.00000
     29      12.4474      0.00000
     30      12.4474      0.00000
     31      12.4474      0.00000
     32      12.4474      0.00000

[...]

 k-point *** :       0.5000    0.5000    0.5000
  band No.  band energies     occupation
      1      -2.4061      2.00000
      2      -2.4061      2.00000
      3      -2.4061      2.00000
      4      -2.4061      2.00000
      5      -0.6109      2.00000
      6      -0.6109      2.00000
      7      -0.6109      2.00000
      8      -0.6109      2.00000
      9      -0.6109      2.00000
     10      -0.6109      2.00000
     11      -0.6109      2.00000
     12      -0.6109      2.00000
     13       1.1767      2.00000
     14       1.1767      2.00000
     15       1.1767      2.00000
     16       1.1767      2.00000
     17       1.1767      2.00000
     18       1.1767      2.00000
     19       1.1767      2.00000
     20       1.1767      2.00000
     21       3.1017      0.00000
     22       3.1017      0.00000
     23       3.1017      0.00000
     24       3.1017      0.00000
     25       5.0428      0.00000
     26       5.0428      0.00000
     27       5.0428      0.00000
     28       5.0428      0.00000
     29      17.4370      0.00000
     30      17.4370      0.00000
     31      17.4370      0.00000
     32      17.4370      0.00000

 soft charge-density along one line, spin component           1
         0         1         2         3         4         5         6         7         8         9
 total charge-density along one line

------------------------ aborting loop because EDIFF is reached ----------------------------------------

  FREE ENERGIE OF THE ION-ELECTRON SYSTEM (eV)
  free  energy   TOTEN  =       -12.338405 eV

  energy  without entropy=      -12.338346  energy(sigma->0) =      -12.338375

  FORCE on cell =-STRESS in cart. coord.  units (eV/reduce length):
  Direction    X        Y        Z        XY       YZ       ZX
  Alpha Z    346.11    346.11    346.11
  Ewald    -1203.86  -1203.86  -1203.86      0.00     -0.00      0.00
  Hartree    194.39    194.39    194.39      0.00     -0.00      0.00
  E(xc)     -196.57   -196.57   -196.57     -0.00      0.00     -0.00
  Local      283.02    283.02    283.02      0.00     -0.00      0.00
  n-local   -201.11   -216.96   -220.20      0.90      5.28      1.92
  augment    172.14    172.14    172.14     -0.00     -0.00     -0.00
  Kinetic    614.32    609.64    605.98     -3.53     -0.75     -2.13
  Total       -7.54     -7.54     -7.54      0.00      0.00     -0.00
  in kB     -139.53   -139.53   -139.53      0.00      0.00     -0.00

 VOLUME and BASIS-vectors are now :
  energy-cutoff  :     1000.00
  volume of cell :       86.58
      direct lattice vectors                 reciprocal lattice vectors
     4.423869125  0.000000000  0.000000000     0.226046470  0.000000000  0.000000000
     0.000000000  4.423869125  0.000000000     0.000000000  0.226046470  0.000000000
     0.000000000  0.000000000  4.423869125     0.000000000  0.000000000  0.226046470

  length of vectors
     4.423869125  4.423869125  4.423869125     0.226046470  0.226046470  0.226046470

 FORCES acting on ions
    electron-ion (+dipol)            ewald-force                    non-local-force                 convergence-correction
   -.230E-13 -.240E-13 -.269E-13   -.882E-14 0.181E-14 -.255E-14   0.172E-25 0.149E-25 -.285E-26   0.304E-15 -.314E-14 -.214E-13
   0.199E-12 -.483E-12 -.432E-12   0.500E-14 0.848E-14 -.270E-14   -.808E-26 0.128E-25 0.596E-27   0.567E-14 -.713E-15 -.230E-13
   0.199E-12 -.229E-13 -.261E-11   0.241E-14 -.776E-14 0.107E-14   0.190E-25 0.247E-26 0.132E-25   0.486E-14 0.116E-14 0.137E-13
   -.229E-13 0.199E-12 0.193E-12   0.119E-14 -.108E-14 0.922E-15   -.812E-26 -.780E-26 0.167E-25   0.261E-16 -.794E-15 0.161E-13
   0.353E-12 -.331E-12 -.288E-11   -.205E-15 0.144E-14 -.325E-14   0.200E-25 0.224E-25 0.276E-25   0.109E-13 -.349E-14 -.148E-13

 POSITION                                       TOTAL-FORCE (eV/Angst)
      0.00000      0.00000      0.00000        -0.000000     -0.000000     -0.000000
      2.21193      2.21193      0.00000        -0.000000     -0.000000     -0.000000
      2.21193      0.00000      2.21193         0.000000      0.000000      0.000000
      0.00000      2.21193      2.21193         0.000000     -0.000000     -0.000000
    total drift:                                0.000000     -0.000000     -0.000000

 mean value of Nose-termostat <S>:     1.000 mean value of <T> :     0.000
 mean temperature <T/S>/<1/S>  :     0.000