 vasp.4.6.28 25Jul05 complex
 executed on             LinuxIFC date 2017.01.06  19:16:51

 INCAR:
 POTCAR:   PAW_PBE Al 04Jan2001
 POTCAR:   PAW_PBE Al 04Jan2001
   VRHFIN =Al: s2p1

   TITEL  = PAW_PBE Al 04Jan2001
   POMASS =   26.982; ZVAL   =    3.000    mass and valenz
   ENMAX  =  240.300; ENMIN  =  180.225 eV
   QCUT   =   -4.203; QGAM   =    8.405    optimization parameters

   Description
     l     E      TYP  RCUT    TYP  RCUT
     0   .000     23  1.900
     0   .000     23  1.900
     1   .000     23  1.900
     1  1.000     23  1.900
     2   .000      7  1.900

 PAW_PBE Al 04Jan2001                   :

 POSCAR: al100
  positions in direct lattice

 ion  position               nearest neighbor table
   1  0.750  0.750  0.500-   3 2.97  14 2.97  19 2.97  20 2.97   5 2.97  26 2.97  11 2.97   6 2.97
                            18 2.97  29 2.97  10 2.97   8 2.97
   2  0.750  0.750  0.000-  12 2.95  10 2.97   8 2.97  22 2.97  27 2.97  11 2.97  18 2.97  26 2.97
                             5 2.97  32 2.97   3 2.97  20 2.97
   3  0.750  0.000  0.250-  12 2.95   5 2.97   9 2.97   1 2.97  28 2.97  19 2.97  18 2.97   6 2.97
                            27 2.97  13 2.97   4 2.97   2 2.97
   4  0.750  0.250  0.500-   6 2.97   8 2.97  10 2.97  29 2.97  13 2.97  31 2.97  21 2.97  28 2.97
                            14 2.97  19 2.97   3 2.97  20 2.97
   5  0.000  0.750  0.250-   3 2.97  14 2.97  25 2.97  15 2.97   1 2.97   2 2.97   7 2.97  16 2.97
                            10 2.97  22 2.97   6 2.97  12 2.97
   6  0.000  0.000  0.500-   4 2.97   7 2.97  11 2.97  13 2.97   8 2.97  16 2.97   1 2.97   3 2.97
                            17 2.97  23 2.97  21 2.97   5 2.97
   7  0.250  0.750  0.500-   6 2.97  16 2.97  29 2.97  30 2.97  11 2.97  18 2.97  19 2.97  26 2.97
                             5 2.97  14 2.97  25 2.97  23 2.97
   8  0.750  0.000  0.750-  12 2.95   4 2.97  11 2.97   2 2.97  31 2.97  27 2.97   6 2.97  26 2.97
                            19 2.97  21 2.97   9 2.97   1 2.97
   9  0.750  0.250  0.000-  12 2.95   3 2.97  20 2.97  32 2.97  28 2.97  21 2.97  27 2.97  13 2.97
                            31 2.97  22 2.97  10 2.97   8 2.97
  10  0.750  0.500  0.250-   2 2.97   4 2.97  13 2.97  18 2.97  22 2.97  29 2.97  14 2.97  28 2.97
                             5 2.97  32 2.97   9 2.97   1 2.97
  11  0.000  0.750  0.750-   6 2.97   8 2.97  22 2.97  30 2.97   7 2.97   2 2.97  20 2.97   1 2.97
                            23 2.97  15 2.97  14 2.97  12 2.97
  12  0.998  0.000  0.000-   9 2.95   3 2.95   2 2.95   8 2.95   5 2.97  21 2.97  11 2.97  13 2.97
                            15 2.98  23 2.98  16 2.98  24 2.98
  13  0.000  0.250  0.250-   6 2.97  10 2.97  16 2.97  22 2.97   4 2.97  24 2.97  17 2.97   3 2.97
                             9 2.97  25 2.97  14 2.97  12 2.97
  14  0.000  0.500  0.500-   1 2.97   5 2.97  17 2.97  21 2.97  20 2.97  25 2.97   7 2.97  10 2.97
                             4 2.97  30 2.97  13 2.97  11 2.97
  15  0.250  0.750  0.000-  23 2.97  25 2.97  32 2.97  26 2.97   5 2.97  18 2.97  22 2.97  27 2.97
                            11 2.97  30 2.97  16 2.97  12 2.98
  16  0.250  0.000  0.250-   7 2.97  13 2.97  18 2.97  24 2.97   6 2.97  27 2.97   5 2.97  19 2.97
                            28 2.97  17 2.97  15 2.97  12 2.98
  17  0.250  0.250  0.500-  14 2.97  19 2.97  23 2.97  25 2.97  21 2.97  28 2.97   6 2.97  13 2.97
                            29 2.97  31 2.97  30 2.97  16 2.97
  18  0.500  0.750  0.250-  10 2.97  16 2.97  27 2.97  29 2.97   2 2.97   7 2.97   1 2.97  25 2.97
                             3 2.97  15 2.97  19 2.97  32 2.97
  19  0.500  0.000  0.500-   1 2.97  17 2.97  26 2.97  28 2.97   3 2.97  23 2.97   4 2.97   7 2.97
                             8 2.97  16 2.97  18 2.97  31 2.97
  20  0.750  0.500  0.750-   1 2.97   9 2.97  21 2.97  26 2.97  14 2.97  32 2.97  11 2.97  29 2.97
                            31 2.97  22 2.97   4 2.97   2 2.97
  21  0.000  0.250  0.750-  14 2.97  20 2.97  23 2.97   9 2.97  17 2.97   8 2.97   4 2.97  24 2.97
                            30 2.97  22 2.97   6 2.97  12 2.97
  22  0.000  0.500  0.000-   2 2.97  11 2.97  13 2.97  24 2.97  10 2.97  30 2.97  20 2.97   9 2.97
                            25 2.97  15 2.97  21 2.97   5 2.97
  23  0.250  0.000  0.750-  15 2.97  17 2.97  21 2.97  26 2.97  19 2.97  11 2.97   6 2.97  27 2.97
                            31 2.97  24 2.97   7 2.97  12 2.98
  24  0.250  0.250  0.000-  16 2.97  22 2.97  27 2.97  30 2.97  13 2.97  31 2.97  21 2.97  28 2.97
                            32 2.97  25 2.97  23 2.97  12 2.98
  25  0.250  0.500  0.250-   5 2.97  15 2.97  17 2.97  28 2.97  14 2.97  32 2.97  22 2.97  13 2.97
                            29 2.97  18 2.97  24 2.97   7 2.97
  26  0.500  0.750  0.750-  19 2.97  20 2.97  23 2.97  32 2.97   1 2.97  15 2.97   8 2.97   2 2.97
                            30 2.97   7 2.97  27 2.97  29 2.97
  27  0.500  0.000  0.000-   2 2.97  18 2.97  24 2.97  31 2.97  16 2.97   8 2.97   9 2.97  23 2.97
                            15 2.97   3 2.97  28 2.97  26 2.97
  28  0.500  0.250  0.250-   3 2.97  19 2.97  25 2.97  32 2.97  17 2.97   9 2.97  10 2.97  24 2.97
                            16 2.97   4 2.97  29 2.97  27 2.97
  29  0.500  0.500  0.500-   4 2.97   7 2.97  18 2.97  31 2.97  30 2.97  10 2.97  20 2.97  25 2.97
                            17 2.97   1 2.97  26 2.97  28 2.97
  30  0.250  0.500  0.750-   7 2.97  11 2.97  24 2.97  31 2.97  29 2.97  22 2.97  26 2.97  14 2.97
                            21 2.97  32 2.97  17 2.97  15 2.97
  31  0.500  0.250  0.750-   8 2.97  27 2.97  29 2.97  30 2.97  24 2.97   4 2.97   9 2.97  17 2.97
                            20 2.97  23 2.97  19 2.97  32 2.97
  32  0.500  0.500  0.000-   9 2.97  15 2.97  26 2.97  28 2.97  20 2.97  25 2.97   2 2.97  10 2.97
                            24 2.97  30 2.97  18 2.97  31 2.97

  LATTYP: Found a simple cubic cell.
 ALAT       =     8.3975965000

  Lattice vectors:

 A1 = (   8.3975965000,   0.0000000000,   0.0000000000)
 A2 = (   0.0000001500,   8.3975965000,   0.0000000000)
 A3 = (   0.0000001500,   0.0000001500,   8.3975965000)
 Subroutine PRICEL returns:
 Original cell was already a primitive cell.

Analysis of symmetry for initial positions (statically):

 Routine SETGRP: Setting up the symmetry group for a
 simple cubic supercell.

 Subroutine GETGRP returns: Found  8 space group operations
 (whereof  8 operations were pure point group operations)
 out of a pool of 48 trial point group operations.

The static configuration has the point symmetry C_4v.

Analysis of symmetry for dynamics (positions and initial velocities):

 Subroutine DYNSYM returns: Found  8 space group operations
 (whereof  8 operations were pure point group operations)
 out of a pool of  8 trial space group operations
 (whereof  8 operations were pure point group operations)
 and found also     1 'primitive' translations

The dynamic configuration has the point symmetry C_4v.

 KPOINTS: Automatic mesh

Automatic generation of k-mesh.

 Subroutine IBZKPT returns following result:

 Found      6 irreducible k-points:

 Following reciprocal coordinates:
            Coordinates               Weight
  0.000000  0.000000  0.000000      1.000000
  0.333333  0.000000 -0.000000      2.000000
  0.000000  0.333333  0.000000      4.000000
  0.333333  0.333333 -0.000000      8.000000
  0.000000  0.333333  0.333333      4.000000
  0.333333  0.333333  0.333333      8.000000

 Following cartesian coordinates:
            Coordinates               Weight
  0.000000  0.000000  0.000000      1.000000
  0.039694 -0.000000 -0.000000      2.000000
  0.000000  0.039694 -0.000000      4.000000
  0.039694  0.039694 -0.000000      8.000000
  0.000000  0.039694  0.039694      4.000000
  0.039694  0.039694  0.039694      8.000000

 I would recommend the setting:
   dimension x,y,z NGX =    67 NGY =   67 NGZ =   67
 SYSTEM =  al100
 POSCAR =  al100

 Startparameter for this run:
   NWRITE =      2    write-flag & timer
   PREC   = accura    medium, high low
   ISTART =      1    job   : 0-new  1-cont  2-samecut
   ICHARG =      0    charge: 1-file 2-atom 10-const
   ISPIN  =      1    spin polarized calculation?
   LNONCOLLINEAR =      F non collinear calculations
   LSORBIT =      F    spin-orbit coupling
   INIWAV =      1    electr: 0-lowe 1-rand  2-diag
   LASPH  =      F    aspherical Exc in radial PAW
   METAGGA=      F    non-selfconsistent MetaGGA calc.

 Electronic Relaxation 1
   ENCUT  =  600.0 eV  44.10 Ry    6.64 a.u.  16.77 16.77 16.77*2*pi/ulx,y,z
   ENINI  =  600.0     initial cutoff
   ENAUG  =  291.1 eV  augmentation charge cutoff
   NELM   =     60;   NELMIN=  2; NELMDL=  0     # of ELM steps
   EDIFF  = 0.1E-04   stopping-criterion for ELM
   LREAL  =      F    real-space projection
   LCOMPAT=      F    compatible to vasp.4.4
   LREAL_COMPAT= F    compatible to vasp.4.5.1-3
   GGA_COMPAT  = T    GGA compatible to vasp.4.4-vasp.4.6
   LMAXPAW     = -100 max onsite density
   LMAXMIX     =    2 max onsite mixed and CHGCAR
   VOSKOWN=      1    Vosko Wilk Nusair interpolation
   ROPT   =    0.00000
 Ionic relaxation
   EDIFFG = -.2E-01   stopping-criterion for IOM
   NSW    =      0    number of steps for IOM
   NBLOCK =      1;   KBLOCK =      1    inner block; outer block
   IBRION =     -1    ionic relax: 0-MD 1-quasi-New 2-CG
   NFREE  =      0    steps in history (QN), initial steepest desc. (CG)
   ISIF   =      2    stress and relaxation
   IWAVPR =     10    prediction:  0-non 1-charg 2-wave 3-comb
   ISYM   =      2    0-nonsym 1-usesym 2-fastsym
   LCORR  =      T    Harris-Foulkes like correction to forces

   POTIM  =   0.50    time-step for ionic-motion
   TEIN   =    0.0    initial temperature
   TEBEG  =    0.0;   TEEND  =   0.0 temperature during run
   SMASS  =  -3.00    Nose mass-parameter (am)
   estimated Nose-frequenzy (Omega)   =  0.10E-29 period in steps =****** mass=  -0.161E-26a.u.
   NPACO  =    256;   APACO  = 16.0  distance and # of slots for P.C.
   PSTRESS=    0.0 pullay stress

  Mass of Ions in am
   POMASS =  26.98
  Ionic Valenz
   ZVAL   =   3.00
  Atomic Wigner-Seitz radii
   NELECT =      96.0000    total number of electrons
   NUPDOWN=      -1.0000    fix difference up-down

 DOS related values:
   EMIN   =  10.00;   EMAX   =-10.00  energy-range for DOS
   ISMEAR =     1;   SIGMA  =   0.20  broadening in eV -4-tet -1-fermi 0-gaus

 Electronic relaxation 2 (details)
   IALGO  =     38    algorithm
   LDIAG  =      T    sub-space diagonalisation
   IMIX   =      4    mixing-type and parameters
     AMIX     =   0.40;   BMIX     =  1.00
     AMIX_MAG =   1.60;   BMIX_MAG =  1.00
     AMIN     =   0.10
     WC   =   100.;   INIMIX=   1;  MIXPRE=   1

 Intra band minimization:
   WEIMIN = 0.0000     energy-eigenvalue tresh-hold
   EBREAK =  0.38E-07  absolut break condition
   DEPER  =   0.30     relativ break condition

   TIME   =   0.10     timestep for ELM

  volume/ion in A,a.u.               =      18.51       124.89
  Fermi-wavevector in a.u.,eV,Ry     =   0.892641 10.841234  0.796808

 Second variation
   LSECVAR=     F    do a second variation

 Write flags
[...]
  PAW double counting   =      1132.17671796     -109.53822654
  entropy T*S    EENTRO =        -0.02741123
  eigenvalues    EBANDS =       261.26613405
  atomic energy  EATOM  =      1713.23359074
  free energy    TOTEN  =      -118.97783079 eV

  energy without entropy =     -118.95041956  energy(sigma->0) =     -118.96869371

[...]

 eigenvalues of (default mixing * dielectric matrix)
  average eigenvalue GAMMA=   1.2387
  1.2387

[...]

 eigenvalue-minimisations  :   956
 total energy-change (2. order) :-0.6627271E-03  (-0.1736378E-02)
 number of electron   96.0000000 magnetization
 augmentation part    -1.3354341 magnetization

[...]

 eigenvalue-minimisations  :   968
 total energy-change (2. order) : 0.5886292E-04  (-0.3811746E-04)
 number of electron   96.0000000 magnetization
 augmentation part    -1.3354031 magnetization

 Broyden mixing:
  rms(total) = 0.20999E-02    rms(broyden)= 0.20999E-02
  rms(prec ) = 0.32509E-02
  weight for this iteration     100.00

 eigenvalues of (default mixing * dielectric matrix)
  average eigenvalue GAMMA=   1.4337
  1.0473  1.0473  2.2066

[...]

----------------------------------------- Iteration    1(   5)  ---------------------------------------

 eigenvalue-minimisations  :   944
 total energy-change (2. order) : 0.3606694E-05  (-0.4108961E-05)
 number of electron   96.0000000 magnetization
 augmentation part    -1.3354031 magnetization

 Free energy of the ion-electron system (eV)
  alpha Z        PSCENC =        -5.80792023
  Ewald energy   TEWEN  =     -2264.22089505
  -1/2 Hartree   DENC   =        -3.22988262
  -V(xc)+E(xc)   XCENC  =      -843.43246379
  PAW double counting   =      1132.17546408     -109.52246144
  entropy T*S    EENTRO =        -0.02434525
  eigenvalues    EBANDS =       261.74846431
  atomic energy  EATOM  =      1713.23359074
  free energy    TOTEN  =      -119.08044926 eV

  energy without entropy =     -119.05610400  energy(sigma->0) =     -119.07233417

 average (electrostatic) potential at core
  the test charge radii are     1.0406
  (the norm of the test charge is              1.0000)
       1 -73.9280       2 -73.9257       3 -73.9257       4 -73.9280       5 -73.9277
       6 -73.9277       7 -73.9275       8 -73.9257       9 -73.9257      10 -73.9280
      11 -73.9277      12 -73.9276      13 -73.9277      14 -73.9277      15 -73.9297
      16 -73.9297      17 -73.9275      18 -73.9276      19 -73.9277      20 -73.9280
      21 -73.9277      22 -73.9277      23 -73.9297      24 -73.9297      25 -73.9275
      26 -73.9276      27 -73.9277      28 -73.9276      29 -73.9277      30 -73.9275
      31 -73.9276      32 -73.9277

 E-fermi :   6.6901     XC(G=0):  -9.7883     alpha+bet :-13.2637
   add alpha+bet to get absolut eigen values

 k-point   1 :       0.0000    0.0000    0.0000
  band No.  band energies     occupation
      1      -3.5117      2.00000
      2      -1.4330      2.00000
      3      -1.4262      2.00000
      4      -1.4262      2.00000
      5      -1.4262      2.00000
      6      -1.4262      2.00000
      7      -1.4195      2.00000
      8       0.6200      2.00000
      9       0.6288      2.00000
     10       0.6288      2.00000
     11       0.6317      2.00000
     12       0.6320      2.00000
     13       0.6320      2.00000
     14       0.6320      2.00000
     15       0.6320      2.00000
     16       0.6323      2.00000
     17       0.6352      2.00000
     18       0.6352      2.00000
     19       0.6439      2.00000
     20       2.6202      2.00000
     21       2.6203      2.00000
     22       2.6203      2.00000
     23       2.6204      2.00000
     24       2.7094      2.00000
     25       2.7096      2.00000
     26       2.7096      2.00000
     27       2.7097      2.00000
     28       4.2068      2.00000
     29       4.2068      2.00000
     30       4.2068      2.00000
     31       5.2482      2.00000
     32       5.2483      2.00000
     33       5.2483      2.00000
     34       6.1451      2.00080
     35       6.1451      2.00080
     36       6.1533      2.00098
     37       6.1533      2.00098
     38       6.1533      2.00098
     39       6.1533      2.00098
     40       6.1533      2.00098
     41       6.1533      2.00098
     42       6.1533      2.00098
     43       6.1534      2.00098
     44       6.1614      2.00119
     45       6.1614      2.00119
     46       7.2072     -0.00157
     47       7.2148     -0.00131
     48       7.2149     -0.00131
     49       7.2149     -0.00131
     50       7.2149     -0.00131
     51       7.2223     -0.00110
     52       7.3523     -0.00003
     53       7.3537     -0.00003
     54       7.3537     -0.00003
     55       7.3537     -0.00003
     56       7.3539     -0.00003
     57       7.3552     -0.00003
     58       8.0938     -0.00000
     59       8.0943     -0.00000
     60       8.0977     -0.00000
     61       8.1013     -0.00000
     62       8.1015     -0.00000
     63       8.1015     -0.00000
     64       8.1016     -0.00000
     65       8.1018     -0.00000
     66       8.1048     -0.00000
     67       8.1082     -0.00000
     68       8.1093     -0.00000

[...]

 k-point   6 :       0.3333    0.3333    0.3333
  band No.  band energies     occupation
      1      -2.8135      2.00000
      2      -2.1214      2.00000
      3      -2.1184      2.00000
      4      -2.1154      2.00000
      5      -1.4294      2.00000
      6      -1.4264      2.00000
      7      -1.4234      2.00000
      8      -0.7374      2.00000
      9       0.6278      2.00000
     10       0.6308      2.00000
     11       0.6337      2.00000
     12       1.3057      2.00000
     13       1.3090      2.00000
     14       1.3109      2.00000
     15       1.3109      2.00000
     16       1.3129      2.00000
     17       1.3162      2.00000
     18       1.9866      2.00000
     19       1.9881      2.00000
     20       1.9897      2.00000
     21       2.6483      2.00000
     22       2.6497      2.00000
     23       2.6512      2.00000
     24       3.3153      2.00000
     25       3.3184      2.00000
     26       3.3205      2.00000
     27       3.3205      2.00000
     28       3.3226      2.00000
     29       3.3258      2.00000
     30       3.9796      2.00000
     31       3.9827      2.00000
     32       3.9858      2.00000
     33       4.0060      2.00000
     34       4.0089      2.00000
     35       4.0119      2.00000
     36       4.6686      2.00000
     37       4.6701      2.00000
     38       4.6716      2.00000
     39       5.9742      2.00001
     40       5.9751      2.00001
     41       5.9774      2.00001
     42       5.9774      2.00001
     43       5.9797      2.00001
     44       5.9804      2.00001
     45       6.6337      1.45704
     46       6.6346      1.45009
     47       6.6369      1.43342
     48       6.6369      1.43339
     49       6.6391      1.41635
     50       6.6401      1.40917
     51       7.3116     -0.00010
     52       7.9209     -0.00000
     53       7.9229     -0.00000
     54       7.9249     -0.00000
     55       8.1087     -0.00000
     56       8.1099     -0.00000
     57       8.1110     -0.00000
     58       8.5782     -0.00000
     59       8.5813     -0.00000
     60       8.5845     -0.00000
     61       8.7570     -0.00000
     62       8.7571     -0.00000
     63       8.7596     -0.00000
     64       8.7597     -0.00000
     65       8.7621     -0.00000
     66       8.7623     -0.00000
     67       9.2479     -0.00000
     68       9.2500     -0.00000

 soft charge-density along one line, spin component           1
         0         1         2         3         4         5         6         7         8         9
 total charge-density along one line

------------------------ aborting loop because EDIFF is reached ----------------------------------------

  FREE ENERGIE OF THE ION-ELECTRON SYSTEM (eV)
  free  energy   TOTEN  =      -119.080449 eV

  energy  without entropy=     -119.056104  energy(sigma->0) =     -119.072334

  FORCE on cell =-STRESS in cart. coord.  units (eV/reduce length):
  Direction    X        Y        Z        XY       YZ       ZX
  Alpha Z     -5.81     -5.81     -5.81
  Ewald     -754.75   -754.74   -754.74     -0.00     -0.00     -0.00
  Hartree      1.07      1.08      1.08      0.00      0.00      0.00
  E(xc)     -264.80   -264.80   -264.80      0.00      0.00      0.00
  Local       -5.93     -5.95     -5.95      0.00      0.00      0.00
  n-local    593.94    595.54    592.34      0.29      0.34      0.39
  augment    -35.68    -35.68    -35.68      0.00      0.00      0.00
  Kinetic    446.52    435.45    457.58     -5.45     -7.55     -9.66
  Total      -25.44    -25.44    -25.44     -0.00     -0.00     -0.00
  in kB      -68.82    -68.83    -68.83     -0.00     -0.00     -0.00

 VOLUME and BASIS-vectors are now :
  energy-cutoff  :      600.00
  volume of cell :      592.20
      direct lattice vectors                 reciprocal lattice vectors
     8.397596500  0.000000000  0.000000000     0.119081692 -0.000000002 -0.000000002
     0.000000150  8.397596500  0.000000000     0.000000000  0.119081692 -0.000000002
     0.000000150  0.000000150  8.397596500     0.000000000  0.000000000  0.119081692

  length of vectors
     8.397596500  8.397596500  8.397596500     0.119081692  0.119081692  0.119081692

 FORCES acting on ions
    electron-ion (+dipol)            ewald-force                    non-local-force                 convergence-correction
   0.162E-03 0.131E-01 -.904E-09   -.209E-02 -.114E-01 0.113E-08   0.922E-03 -.527E-03 -.339E-19   0.288E-04 -.245E-03 0.273E-10
   0.811E-01 0.149E+00 -.168E-08   -.719E-01 -.139E+00 0.215E-10   -.198E-01 -.205E-01 0.000E+00   0.766E-03 0.179E-02 -.864E-10
   0.811E-01 -.224E-08 -.149E+00   -.719E-01 0.246E-08 0.139E+00   -.198E-01 0.366E-09 0.205E-01   0.766E-03 0.189E-10 -.179E-02
   0.162E-03 -.131E-01 0.640E-09   -.209E-02 0.114E-01 -.659E-09   0.922E-03 0.527E-03 0.271E-19   0.288E-04 0.245E-03 -.315E-10
   -.829E-01 -.750E-03 0.750E-03   0.896E-01 0.671E-03 -.671E-03   -.181E-02 0.124E-03 -.124E-03   -.127E-02 -.229E-04 0.229E-04
   -.508E-01 0.226E-09 0.281E-08   0.475E-01 -.125E-09 -.336E-08   0.357E-02 0.379E-19 -.271E-19   -.310E-03 0.927E-10 -.131E-09
   0.477E-03 -.134E-01 0.621E-09   -.252E-02 0.114E-01 -.632E-09   0.902E-03 0.568E-03 0.271E-19   0.180E-03 0.394E-03 -.356E-10
   0.811E-01 0.985E-09 0.149E+00   -.719E-01 -.246E-08 -.139E+00   -.198E-01 -.366E-09 -.205E-01   0.766E-03 -.544E-10 0.179E-02
   0.811E-01 -.149E+00 0.413E-09   -.719E-01 0.139E+00 -.215E-10   -.198E-01 0.205E-01 -.271E-19   0.766E-03 -.179E-02 0.508E-10
   0.162E-03 0.405E-09 -.131E-01   -.209E-02 -.456E-09 0.114E-01   0.922E-03 0.941E-11 0.527E-03   0.288E-04 -.271E-10 0.245E-03
   -.829E-01 -.750E-03 -.750E-03   0.896E-01 0.671E-03 0.671E-03   -.181E-02 0.124E-03 0.124E-03   -.127E-02 -.229E-04 -.229E-04
   -.674E+00 0.944E-08 0.180E-07   0.568E+00 -.966E-08 -.966E-08   0.169E+00 0.566E-19 0.000E+00   -.465E-02 0.268E-09 0.268E-09
   -.829E-01 0.750E-03 0.750E-03   0.896E-01 -.671E-03 -.671E-03   -.181E-02 -.124E-03 -.124E-03   -.127E-02 0.229E-04 0.229E-04
   -.166E-01 0.766E-09 0.767E-09   0.196E-01 -.893E-09 -.893E-09   -.105E-02 0.121E-18 -.542E-19   -.548E-03 -.776E-10 -.776E-10
   0.813E-01 -.146E+00 0.394E-09   -.727E-01 0.137E+00 -.193E-10   -.190E-01 0.192E-01 0.271E-19   0.109E-02 -.179E-02 0.444E-10
   0.813E-01 0.973E-09 0.146E+00   -.727E-01 -.242E-08 -.137E+00   -.190E-01 -.344E-09 -.192E-01   0.109E-02 -.599E-10 0.179E-02
   0.477E-03 0.134E-01 -.921E-09   -.252E-02 -.114E-01 0.115E-08   0.902E-03 -.568E-03 -.678E-20   0.180E-03 -.394E-03 0.255E-10
   0.562E-01 0.188E-03 -.188E-03   -.504E-01 -.201E-03 0.201E-03   -.340E-02 -.641E-04 0.641E-04   0.139E-03 0.705E-04 -.705E-04
   0.364E-01 -.197E-09 -.181E-08   -.373E-01 0.123E-09 0.212E-08   0.139E-02 0.418E-19 0.000E+00   -.382E-03 -.823E-10 0.147E-09
   0.162E-03 -.671E-09 0.131E-01   -.209E-02 0.924E-09 -.114E-01   0.922E-03 -.941E-11 -.527E-03   0.288E-04 0.229E-10 -.245E-03
   -.829E-01 0.750E-03 -.750E-03   0.896E-01 -.671E-03 0.671E-03   -.181E-02 -.124E-03 0.124E-03   -.127E-02 0.229E-04 -.229E-04
   -.508E-01 0.280E-08 0.228E-09   0.475E-01 -.336E-08 -.125E-09   0.357E-02 -.158E-20 0.000E+00   -.310E-03 -.131E-09 0.927E-10
   0.813E-01 -.220E-08 -.146E+00   -.727E-01 0.243E-08 0.137E+00   -.190E-01 0.344E-09 0.192E-01   0.109E-02 0.124E-10 -.179E-02
   0.813E-01 0.146E+00 -.165E-08   -.727E-01 -.137E+00 0.236E-10   -.190E-01 -.192E-01 0.000E+00   0.109E-02 0.179E-02 -.919E-10
   0.477E-03 -.683E-09 0.134E-01   -.252E-02 0.944E-09 -.114E-01   0.902E-03 -.101E-10 -.568E-03   0.180E-03 0.184E-10 -.394E-03
   0.562E-01 0.188E-03 0.188E-03   -.504E-01 -.201E-03 -.201E-03   -.340E-02 -.641E-04 -.641E-04   0.139E-03 0.705E-04 0.705E-04
   0.155E+00 -.971E-09 -.251E-08   -.150E+00 0.165E-09 0.165E-09   -.826E-02 -.902E-19 0.000E+00   0.217E-02 -.185E-09 -.185E-09
   0.562E-01 -.188E-03 -.188E-03   -.504E-01 0.201E-03 0.201E-03   -.340E-02 0.641E-04 0.641E-04   0.139E-03 -.705E-04 -.705E-04
   0.172E-01 -.764E-09 -.763E-09   -.183E-01 0.787E-09 0.787E-09   0.135E-02 -.675E-19 -.136E-19   0.637E-03 0.750E-10 0.750E-10
   0.477E-03 0.381E-09 -.134E-01   -.252E-02 -.429E-09 0.114E-01   0.902E-03 0.101E-10 0.568E-03   0.180E-03 -.286E-10 0.394E-03
   0.562E-01 -.188E-03 0.188E-03   -.504E-01 0.201E-03 -.201E-03   -.340E-02 0.641E-04 -.641E-04   0.139E-03 -.705E-04 0.705E-04
   0.364E-01 -.182E-08 -.194E-09   -.373E-01 0.212E-08 0.123E-09   0.139E-02 -.485E-20 0.000E+00   -.382E-03 0.147E-09 -.823E-10
   -.171E-02 0.115E-10 0.702E-08   -.183E-13 -.207E-15 -.208E-14   0.193E-02 0.375E-18 -.702E-17   -.521E-04 0.196E-10 0.196E-10

 POSITION                                       TOTAL-FORCE (eV/Angst)
      6.29820      6.29820      4.19880        -0.000982      0.000971      0.000000
      6.29820      6.29820      0.00000        -0.009830     -0.008903      0.000000
      6.29820      0.00000      2.09940        -0.009830      0.000000      0.008903
      6.29820      2.09940      4.19880        -0.000982     -0.000971      0.000000
      0.00000      6.29820      2.09940         0.003583      0.000022     -0.000022
      0.00000      0.00000      4.19880        -0.000042     -0.000000      0.000000
      2.09940      6.29820      4.19880        -0.000970     -0.001045      0.000000
      6.29820      0.00000      6.29820        -0.009830     -0.000000     -0.008903
      6.29820      2.09940      0.00000        -0.009830      0.008903      0.000000
      6.29820      4.19880      2.09940        -0.000982     -0.000000     -0.000971
      0.00000      6.29820      6.29820         0.003583      0.000022      0.000022
      8.37759      0.00000      0.00000         0.058572      0.000000      0.000000
      0.00000      2.09940      2.09940         0.003583     -0.000022     -0.000022
      0.00000      4.19880      4.19880         0.001432     -0.000000      0.000000
      2.09940      6.29820      0.00000        -0.009394      0.008306      0.000000
      2.09940      0.00000      2.09940        -0.009394     -0.000000     -0.008306
      2.09940      2.09940      4.19880        -0.000970      0.001045      0.000000
      4.19880      6.29820      2.09940         0.002571     -0.000007      0.000007
      4.19880      0.00000      4.19880         0.000053     -0.000000      0.000000
      6.29820      4.19880      6.29820        -0.000982      0.000000      0.000971
      0.00000      2.09940      6.29820         0.003583     -0.000022      0.000022
      0.00000      4.19880      0.00000        -0.000042     -0.000000      0.000000
      2.09940      0.00000      6.29820        -0.009394      0.000000      0.008306
      2.09940      2.09940      0.00000        -0.009394     -0.008306      0.000000
      2.09940      4.19880      2.09940        -0.000970      0.000000      0.001045
      4.19880      6.29820      6.29820         0.002571     -0.000007     -0.000007
      4.19880      0.00000      0.00000        -0.000790     -0.000000     -0.000000
      4.19880      2.09940      2.09940         0.002571      0.000007      0.000007
      4.19880      4.19880      4.19880         0.000848      0.000000      0.000000
      2.09940      4.19880      6.29820        -0.000970     -0.000000     -0.001045
      4.19880      2.09940      6.29820         0.002571      0.000007     -0.000007
      4.19880      4.19880      0.00000         0.000053     -0.000000     -0.000000
    total drift:                                0.000168      0.000000      0.000000

 mean value of Nose-termostat <S>:     1.000 mean value of <T> :     0.000
 mean temperature <T/S>/<1/S>  :     0.000