 vasp.4.6.28 25Jul05 complex
 executed on             LinuxIFC date 2016.07.15  16:13:36

 INCAR:
 POTCAR:   PAW_PBE Cu 05Jan2001
 POTCAR:   PAW_PBE Cu 05Jan2001
   VRHFIN =Cu: d10 p1

   TITEL  = PAW_PBE Cu 05Jan2001
   POMASS =   63.546; ZVAL   =   11.000    mass and valenz
   ENMAX  =  273.214; ENMIN  =  204.910 eV
   QCUT   =   -4.481; QGAM   =    8.962    optimization parameters

   Description
     l     E      TYP  RCUT    TYP  RCUT
     2   .000     23  2.300
     2   .000     23  2.300
     0   .000     23  2.300
     0   .000     23  2.300
     1  -.200     23  2.300
     1   .000     23  2.300
     3   .000      7   .000

 PAW_PBE Cu 05Jan2001                   :

 POSCAR: Cu
  positions in direct lattice
  velocities in cartesian coordinates

 ion  position               nearest neighbor table
   1  0.000  0.000  0.000-   2 2.73   3 2.73   4 2.73   3 2.73   4 2.73   2 2.73   4 2.73   4 2.73
                             2 2.73   3 2.73   3 2.73   2 2.73
   2  0.500  0.500  0.000-   1 2.73   3 2.73   4 2.73   3 2.73   4 2.73   1 2.73   3 2.73   3 2.73
                             1 2.73   4 2.73   4 2.73   1 2.73
   3  0.500  0.000  0.500-   1 2.73   2 2.73   4 2.73   1 2.73   2 2.73   2 2.73   4 2.73   2 2.73
                             1 2.73   4 2.73   1 2.73   4 2.73
   4  0.000  0.500  0.500-   1 2.73   2 2.73   3 2.73   1 2.73   2 2.73   1 2.73   3 2.73   1 2.73
                             2 2.73   3 2.73   2 2.73   3 2.73

  LATTYP: Found a simple cubic cell.
 ALAT       =     3.8546007604

  Lattice vectors:

 A1 = (   3.8546007604,   0.0000000000,   0.0000000000)
 A2 = (   0.0000000000,   3.8546007604,   0.0000000000)
 A3 = (   0.0000000000,   0.0000000000,   3.8546007604)
 Subroutine PRICEL returns following result:

  LATTYP: Found a face centered cubic cell.
 ALAT       =     3.8546007604

  Lattice vectors:

 A1 = (   1.9273003802,   1.9273003802,   0.0000000000)
 A2 = (   1.9273003802,   0.0000000000,  -1.9273003802)
 A3 = (   0.0000000000,   1.9273003802,  -1.9273003802)

   4 primitive cells build up your supercell.

Analysis of symmetry for initial positions (statically):

 Routine SETGRP: Setting up the symmetry group for a
 simple cubic supercell.

 Subroutine GETGRP returns: Found 48 space group operations
 (whereof 48 operations were pure point group operations)
 out of a pool of 48 trial point group operations.

The static configuration has the point symmetry O_h .

Analysis of symmetry for dynamics (positions and initial velocities):

 Subroutine DYNSYM returns: Found 48 space group operations
 (whereof 48 operations were pure point group operations)
 out of a pool of 48 trial space group operations
 (whereof 48 operations were pure point group operations)
 and found also     4 'primitive' translations

The dynamic configuration has the point symmetry O_h .

 KPOINTS: Automatic mesh

Automatic generation of k-mesh.
 generate k-points for:  13  13  13

 Subroutine IBZKPT returns following result:

 Found     84 irreducible k-points:

 Following reciprocal coordinates:
            Coordinates               Weight
  0.000000  0.000000  0.000000      1.000000
  0.076923  0.000000  0.000000      6.000000
  0.153846  0.000000  0.000000      6.000000
  0.230769  0.000000  0.000000      6.000000
  0.307692  0.000000  0.000000      6.000000
  0.384615  0.000000  0.000000      6.000000
  0.461538  0.000000  0.000000      6.000000
  0.076923  0.076923  0.000000     12.000000
  0.153846  0.076923  0.000000     24.000000
  0.230769  0.076923  0.000000     24.000000
  0.307692  0.076923  0.000000     24.000000
  0.384615  0.076923  0.000000     24.000000
  0.461538  0.076923  0.000000     24.000000
  0.153846  0.153846  0.000000     12.000000
  0.230769  0.153846  0.000000     24.000000
  0.307692  0.153846  0.000000     24.000000
  0.384615  0.153846  0.000000     24.000000
  0.461538  0.153846  0.000000     24.000000
  0.230769  0.230769  0.000000     12.000000
  0.307692  0.230769  0.000000     24.000000
  0.384615  0.230769  0.000000     24.000000
  0.461538  0.230769  0.000000     24.000000
  0.307692  0.307692  0.000000     12.000000
  0.384615  0.307692  0.000000     24.000000
  0.461538  0.307692  0.000000     24.000000
  0.384615  0.384615  0.000000     12.000000
  0.461538  0.384615  0.000000     24.000000
  0.461538  0.461538  0.000000     12.000000
  0.076923  0.076923  0.076923      8.000000
  0.153846  0.076923  0.076923     24.000000
  0.230769  0.076923  0.076923     24.000000
  0.307692  0.076923  0.076923     24.000000
  0.384615  0.076923  0.076923     24.000000
  0.461538  0.076923  0.076923     24.000000
  0.153846  0.153846  0.076923     24.000000
  0.230769  0.153846  0.076923     48.000000
  0.307692  0.153846  0.076923     48.000000
  0.384615  0.153846  0.076923     48.000000
  0.461538  0.153846  0.076923     48.000000
  0.230769  0.230769  0.076923     24.000000
  0.307692  0.230769  0.076923     48.000000
  0.384615  0.230769  0.076923     48.000000
  0.461538  0.230769  0.076923     48.000000
  0.307692  0.307692  0.076923     24.000000
  0.384615  0.307692  0.076923     48.000000
  0.461538  0.307692  0.076923     48.000000
  0.384615  0.384615  0.076923     24.000000
  0.461538  0.384615  0.076923     48.000000
  0.461538  0.461538  0.076923     24.000000
  0.153846  0.153846  0.153846      8.000000
  0.230769  0.153846  0.153846     24.000000
  0.307692  0.153846  0.153846     24.000000
  0.384615  0.153846  0.153846     24.000000
  0.461538  0.153846  0.153846     24.000000
  0.230769  0.230769  0.153846     24.000000
  0.307692  0.230769  0.153846     48.000000
  0.384615  0.230769  0.153846     48.000000
  0.461538  0.230769  0.153846     48.000000
  0.307692  0.307692  0.153846     24.000000
  0.384615  0.307692  0.153846     48.000000
[...]
  0.384615  0.307692  0.230769     48.000000
  0.461538  0.307692  0.230769     48.000000
  0.384615  0.384615  0.230769     24.000000
  0.461538  0.384615  0.230769     48.000000
  0.461538  0.461538  0.230769     24.000000
  0.307692  0.307692  0.307692      8.000000
  0.384615  0.307692  0.307692     24.000000
  0.461538  0.307692  0.307692     24.000000
  0.384615  0.384615  0.307692     24.000000
  0.461538  0.384615  0.307692     48.000000
  0.461538  0.461538  0.307692     24.000000
  0.384615  0.384615  0.384615      8.000000
  0.461538  0.384615  0.384615     24.000000
  0.461538  0.461538  0.384615     24.000000
  0.461538  0.461538  0.461538      8.000000

 Following cartesian coordinates:
            Coordinates               Weight
  0.000000  0.000000  0.000000      1.000000
  0.021154  0.000000  0.000000      6.000000
  0.042307  0.000000  0.000000      6.000000
  0.063461  0.000000  0.000000      6.000000
  0.084614  0.000000  0.000000      6.000000
  0.105768  0.000000  0.000000      6.000000
  0.126921  0.000000  0.000000      6.000000
  0.021154  0.021154  0.000000     12.000000
  0.042307  0.021154  0.000000     24.000000
  0.063461  0.021154  0.000000     24.000000
  0.084614  0.021154  0.000000     24.000000
  0.105768  0.021154  0.000000     24.000000
  0.126921  0.021154  0.000000     24.000000
  0.042307  0.042307  0.000000     12.000000
  0.063461  0.042307  0.000000     24.000000
  0.084614  0.042307  0.000000     24.000000
  0.105768  0.042307  0.000000     24.000000
  0.126921  0.042307  0.000000     24.000000
  0.063461  0.063461  0.000000     12.000000
  0.084614  0.063461  0.000000     24.000000
  0.105768  0.063461  0.000000     24.000000
  0.126921  0.063461  0.000000     24.000000
  0.084614  0.084614  0.000000     12.000000
  0.105768  0.084614  0.000000     24.000000
  0.126921  0.084614  0.000000     24.000000
  0.105768  0.105768  0.000000     12.000000
  0.126921  0.105768  0.000000     24.000000
  0.126921  0.126921  0.000000     12.000000
  0.021154  0.021154  0.021154      8.000000
  0.042307  0.021154  0.021154     24.000000
  0.063461  0.021154  0.021154     24.000000
  0.084614  0.021154  0.021154     24.000000
  0.105768  0.021154  0.021154     24.000000
  0.126921  0.021154  0.021154     24.000000
  0.042307  0.042307  0.021154     24.000000
  0.063461  0.042307  0.021154     48.000000
  0.084614  0.042307  0.021154     48.000000
  0.105768  0.042307  0.021154     48.000000
  0.126921  0.042307  0.021154     48.000000
  0.063461  0.063461  0.021154     24.000000
  0.084614  0.063461  0.021154     48.000000
  0.105768  0.063461  0.021154     48.000000
  0.126921  0.063461  0.021154     48.000000
  0.084614  0.084614  0.021154     24.000000
  0.105768  0.084614  0.021154     48.000000
  0.126921  0.084614  0.021154     48.000000
  0.105768  0.105768  0.021154     24.000000
  0.126921  0.105768  0.021154     48.000000
  0.126921  0.126921  0.021154     24.000000
  0.042307  0.042307  0.042307      8.000000
  0.063461  0.042307  0.042307     24.000000
  0.084614  0.042307  0.042307     24.000000
  0.105768  0.042307  0.042307     24.000000
  0.126921  0.042307  0.042307     24.000000
  0.063461  0.063461  0.042307     24.000000
  0.084614  0.063461  0.042307     48.000000
  0.105768  0.063461  0.042307     48.000000
  0.126921  0.063461  0.042307     48.000000
  0.084614  0.084614  0.042307     24.000000
  0.105768  0.084614  0.042307     48.000000
[...]
  0.105768  0.084614  0.063461     48.000000
  0.126921  0.084614  0.063461     48.000000
  0.105768  0.105768  0.063461     24.000000
  0.126921  0.105768  0.063461     48.000000
  0.126921  0.126921  0.063461     24.000000
  0.084614  0.084614  0.084614      8.000000
  0.105768  0.084614  0.084614     24.000000
  0.126921  0.084614  0.084614     24.000000
  0.105768  0.105768  0.084614     24.000000
  0.126921  0.105768  0.084614     48.000000
  0.126921  0.126921  0.084614     24.000000
  0.105768  0.105768  0.105768      8.000000
  0.126921  0.105768  0.105768     24.000000
  0.126921  0.126921  0.105768     24.000000
  0.126921  0.126921  0.126921      8.000000

 I would recommend the setting:
   dimension x,y,z NGX =    28 NGY =   28 NGZ =   28
 SYSTEM =  unknown system
 POSCAR =  Cu

 Startparameter for this run:
   NWRITE =      2    write-flag & timer
   PREC   = accura    medium, high low
   ISTART =      0    job   : 0-new  1-cont  2-samecut
   ICHARG =      2    charge: 1-file 2-atom 10-const
   ISPIN  =      1    spin polarized calculation?
   LNONCOLLINEAR =      F non collinear calculations
   LSORBIT =      F    spin-orbit coupling
   INIWAV =      1    electr: 0-lowe 1-rand  2-diag
   LASPH  =      F    aspherical Exc in radial PAW
   METAGGA=      F    non-selfconsistent MetaGGA calc.

 Electronic Relaxation 1
   ENCUT  =  500.0 eV  36.75 Ry    6.06 a.u.   7.03  7.03  7.03*2*pi/ulx,y,z
   ENINI  =  500.0     initial cutoff
   ENAUG  =  516.5 eV  augmentation charge cutoff
   NELM   =     60;   NELMIN=  2; NELMDL=  0     # of ELM steps
   EDIFF  = 0.1E-07   stopping-criterion for ELM
   LREAL  =      F    real-space projection
   LCOMPAT=      F    compatible to vasp.4.4
   LREAL_COMPAT= F    compatible to vasp.4.5.1-3
   GGA_COMPAT  = T    GGA compatible to vasp.4.4-vasp.4.6
   LMAXPAW     = -100 max onsite density
   LMAXMIX     =    2 max onsite mixed and CHGCAR
[...]
   0.38461538  0.15384615  0.00000000       0.011
   0.46153846  0.15384615  0.00000000       0.011
   0.23076923  0.23076923  0.00000000       0.005
   0.30769231  0.23076923  0.00000000       0.011
   0.38461538  0.23076923  0.00000000       0.011
   0.46153846  0.23076923  0.00000000       0.011
   0.30769231  0.30769231  0.00000000       0.005
   0.38461538  0.30769231  0.00000000       0.011
   0.46153846  0.30769231  0.00000000       0.011
   0.38461538  0.38461538  0.00000000       0.005
   0.46153846  0.38461538  0.00000000       0.011
   0.46153846  0.46153846  0.00000000       0.005
   0.07692308  0.07692308  0.07692308       0.004
   0.15384615  0.07692308  0.07692308       0.011
   0.23076923  0.07692308  0.07692308       0.011
   0.30769231  0.07692308  0.07692308       0.011
   0.38461538  0.07692308  0.07692308       0.011
   0.46153846  0.07692308  0.07692308       0.011
   0.15384615  0.15384615  0.07692308       0.011
   0.23076923  0.15384615  0.07692308       0.022
   0.30769231  0.15384615  0.07692308       0.022
   0.38461538  0.15384615  0.07692308       0.022
   0.46153846  0.15384615  0.07692308       0.022
   0.23076923  0.23076923  0.07692308       0.011
   0.30769231  0.23076923  0.07692308       0.022
   0.38461538  0.23076923  0.07692308       0.022
   0.46153846  0.23076923  0.07692308       0.022
   0.30769231  0.30769231  0.07692308       0.011
   0.38461538  0.30769231  0.07692308       0.022
   0.46153846  0.30769231  0.07692308       0.022
   0.38461538  0.38461538  0.07692308       0.011
   0.46153846  0.38461538  0.07692308       0.022
   0.46153846  0.46153846  0.07692308       0.011
   0.15384615  0.15384615  0.15384615       0.004
   0.23076923  0.15384615  0.15384615       0.011
   0.30769231  0.15384615  0.15384615       0.011
   0.38461538  0.15384615  0.15384615       0.011
   0.46153846  0.15384615  0.15384615       0.011
   0.23076923  0.23076923  0.15384615       0.011
   0.30769231  0.23076923  0.15384615       0.022
   0.38461538  0.23076923  0.15384615       0.022
   0.46153846  0.23076923  0.15384615       0.022
   0.30769231  0.30769231  0.15384615       0.011
   0.38461538  0.30769231  0.15384615       0.022
[...]
   0.38461538  0.30769231  0.23076923       0.022
   0.46153846  0.30769231  0.23076923       0.022
   0.38461538  0.38461538  0.23076923       0.011
   0.46153846  0.38461538  0.23076923       0.022
   0.46153846  0.46153846  0.23076923       0.011
   0.30769231  0.30769231  0.30769231       0.004
   0.38461538  0.30769231  0.30769231       0.011
   0.46153846  0.30769231  0.30769231       0.011
   0.38461538  0.38461538  0.30769231       0.011
   0.46153846  0.38461538  0.30769231       0.022
   0.46153846  0.46153846  0.30769231       0.011
   0.38461538  0.38461538  0.38461538       0.004
   0.46153846  0.38461538  0.38461538       0.011
   0.46153846  0.46153846  0.38461538       0.011
   0.46153846  0.46153846  0.46153846       0.004

 position of ions in fractional coordinates (direct lattice)
   0.00000000  0.00000000  0.00000000
   0.50000000  0.50000000  0.00000000
   0.50000000  0.00000000  0.50000000
   0.00000000  0.50000000  0.50000000

 position of ions in cartesian coordinates  (Angst):
   0.00000000  0.00000000  0.00000000
   1.92730038  1.92730038  0.00000000
   1.92730038  0.00000000  1.92730038
   0.00000000  1.92730038  1.92730038

 k-point  1 :  0.00000.00000.0000  plane waves:   1419
 k-point  2 :  0.07690.00000.0000  plane waves:   1418
 k-point  3 :  0.15380.00000.0000  plane waves:   1430
 k-point  4 :  0.23080.00000.0000  plane waves:   1438
 k-point  5 :  0.30770.00000.0000  plane waves:   1434
 k-point  6 :  0.38460.00000.0000  plane waves:   1454
 k-point  7 :  0.46150.00000.0000  plane waves:   1446
 k-point  8 :  0.07690.07690.0000  plane waves:   1422
 k-point  9 :  0.15380.07690.0000  plane waves:   1437
 k-point 10 :  0.23080.07690.0000  plane waves:   1442
 k-point 11 :  0.30770.07690.0000  plane waves:   1445
 k-point 12 :  0.38460.07690.0000  plane waves:   1460
 k-point 13 :  0.46150.07690.0000  plane waves:   1453
 k-point 14 :  0.15380.15380.0000  plane waves:   1436
 k-point 15 :  0.23080.15380.0000  plane waves:   1448
 k-point 16 :  0.30770.15380.0000  plane waves:   1445
 k-point 17 :  0.38460.15380.0000  plane waves:   1449
 k-point 18 :  0.46150.15380.0000  plane waves:   1460
 k-point 19 :  0.23080.23080.0000  plane waves:   1446
 k-point 20 :  0.30770.23080.0000  plane waves:   1451
 k-point 21 :  0.38460.23080.0000  plane waves:   1446
 k-point 22 :  0.46150.23080.0000  plane waves:   1458
 k-point 23 :  0.30770.30770.0000  plane waves:   1454
 k-point 24 :  0.38460.30770.0000  plane waves:   1455
 k-point 25 :  0.46150.30770.0000  plane waves:   1461
 k-point 26 :  0.38460.38460.0000  plane waves:   1446
 k-point 27 :  0.46150.38460.0000  plane waves:   1455
 k-point 28 :  0.46150.46150.0000  plane waves:   1464
 k-point 29 :  0.07690.07690.0769  plane waves:   1427
 k-point 30 :  0.15380.07690.0769  plane waves:   1441
 k-point 31 :  0.23080.07690.0769  plane waves:   1441
 k-point 32 :  0.30770.07690.0769  plane waves:   1453
 k-point 33 :  0.38460.07690.0769  plane waves:   1462
 k-point 34 :  0.46150.07690.0769  plane waves:   1454
 k-point 35 :  0.15380.15380.0769  plane waves:   1442
 k-point 36 :  0.23080.15380.0769  plane waves:   1447
 k-point 37 :  0.30770.15380.0769  plane waves:   1450
 k-point 38 :  0.38460.15380.0769  plane waves:   1452
 k-point 39 :  0.46150.15380.0769  plane waves:   1452
 k-point 40 :  0.23080.23080.0769  plane waves:   1447
 k-point 41 :  0.30770.23080.0769  plane waves:   1457
 k-point 42 :  0.38460.23080.0769  plane waves:   1453
 k-point 43 :  0.46150.23080.0769  plane waves:   1458
 k-point 44 :  0.30770.30770.0769  plane waves:   1452
 k-point 45 :  0.38460.30770.0769  plane waves:   1454
 k-point 46 :  0.46150.30770.0769  plane waves:   1460
 k-point 47 :  0.38460.38460.0769  plane waves:   1457
 k-point 48 :  0.46150.38460.0769  plane waves:   1454
 k-point 49 :  0.46150.46150.0769  plane waves:   1459
 k-point 50 :  0.15380.15380.1538  plane waves:   1451
 k-point 51 :  0.23080.15380.1538  plane waves:   1452
 k-point 52 :  0.30770.15380.1538  plane waves:   1451
 k-point 53 :  0.38460.15380.1538  plane waves:   1454
 k-point 54 :  0.46150.15380.1538  plane waves:   1459
 k-point 55 :  0.23080.23080.1538  plane waves:   1453
 k-point 56 :  0.30770.23080.1538  plane waves:   1449
 k-point 57 :  0.38460.23080.1538  plane waves:   1463
 k-point 58 :  0.46150.23080.1538  plane waves:   1461
 k-point 59 :  0.30770.30770.1538  plane waves:   1451
 k-point 60 :  0.38460.30770.1538  plane waves:   1459
[...]
 k-point 70 :  0.38460.30770.2308  plane waves:   1460
 k-point 71 :  0.46150.30770.2308  plane waves:   1463
 k-point 72 :  0.38460.38460.2308  plane waves:   1460
 k-point 73 :  0.46150.38460.2308  plane waves:   1461
 k-point 74 :  0.46150.46150.2308  plane waves:   1450
 k-point 75 :  0.30770.30770.3077  plane waves:   1463
 k-point 76 :  0.38460.30770.3077  plane waves:   1460
 k-point 77 :  0.46150.30770.3077  plane waves:   1459
 k-point 78 :  0.38460.38460.3077  plane waves:   1460
 k-point 79 :  0.46150.38460.3077  plane waves:   1461
 k-point 80 :  0.46150.46150.3077  plane waves:   1457
 k-point 81 :  0.38460.38460.3846  plane waves:   1451
 k-point 82 :  0.46150.38460.3846  plane waves:   1454
 k-point 83 :  0.46150.46150.3846  plane waves:   1456
 k-point 84 :  0.46150.46150.4615  plane waves:   1454

 maximum and minimum number of plane-waves per node :   1464  1418

 maximum number of plane-waves:   1464
 maximal index in each direction:
   IXMAX=  7   IYMAX=  7   IZMAX=  7
   IXMIN= -7   IYMIN= -7   IZMIN= -7

 WARNING: wrap around error must be expected set NGX to  30
 WARNING: wrap around error must be expected set NGY to  30
 WARNING: wrap around error must be expected set NGZ to  30

 parallel 3dFFT wavefunction:
    minimum data exchange during FFTs selected (reduces bandwidth)
 parallel 3dFFT charge:
    minimum data exchange during FFTs selected (reduces bandwidth)

Broyden mixing: mesh for mixing (old mesh)
   NGX = 15   NGY = 15   NGZ = 15
  (NGX  = 56   NGY  = 56   NGZ  = 56)
 gives a total of   3375 points
 initial charge density was supplied:
 charge density of overlapping atoms calculated
 number of electron   44.0000000 magnetization
 keeping initial charge density in first step

 Maximum index for augmentation-charges        52257 (set IRDMAX)

 First call to EWALD:  gamma=   0.460
 Maximum number of real-space cells 3x 3x 3
 Maximum number of reciprocal cells 3x 3x 3

----------------------------------------- Iteration    1(   1)  ---------------------------------------

 eigenvalue-minimisations  :  4392
 total energy-change (2. order) : 0.2680068E+03  (-0.2105644E+04)
 number of electron   44.0000000 magnetization
 augmentation part    44.0000000 magnetization

 Free energy of the ion-electron system (eV)
  alpha Z        PSCENC =       356.93175380
  Ewald energy   TEWEN  =     -4144.94064942
  -1/2 Hartree   DENC   =     -1454.47592013
  -V(xc)+E(xc)   XCENC  =       173.65624439
  PAW double counting   =      4328.20916945    -4904.30802700
  entropy T*S    EENTRO =        -0.00018346
  eigenvalues    EBANDS =       349.02708002
  atomic energy  EATOM  =      5563.90732063
  free energy    TOTEN  =       268.00678827 eV

  energy without entropy =      268.00697173  energy(sigma->0) =      268.00688000

[...]

 eigenvalue-minimisations  :  4384
 total energy-change (2. order) :-0.2704970E+03  (-0.2649660E+03)
 number of electron   44.0000000 magnetization
 augmentation part    44.0000000 magnetization

[...]

 Broyden mixing:
  rms(total) = 0.13263E+01    rms(broyden)= 0.13263E+01
  rms(prec ) = 0.31148E+01
  weight for this iteration     100.00

[...]

 eigenvalues of (default mixing * dielectric matrix)
  average eigenvalue GAMMA=   0.6304
  0.6304

[...]

 eigenvalue-minimisations  :  2406
 total energy-change (2. order) :-0.4963385E-07  (-0.1731959E-08)
 number of electron   44.0000006 magnetization
 augmentation part    28.9335891 magnetization

 Broyden mixing:
  rms(total) = 0.11833E-05    rms(broyden)= 0.11818E-05
  rms(prec ) = 0.19812E-05
  weight for this iteration     100.00

 eigenvalues of (default mixing * dielectric matrix)
  average eigenvalue GAMMA=   1.6008
  2.7212  2.7212  2.4841  1.8982  0.6707  0.8952  1.0667  0.9749  0.9749

[...]

----------------------------------------- Iteration    1(  15)  ---------------------------------------

 eigenvalue-minimisations  :  2260
 total energy-change (2. order) : 0.5607035E-08  (-0.1182526E-09)
 number of electron   44.0000006 magnetization
 augmentation part    28.9335891 magnetization

 Free energy of the ion-electron system (eV)
  alpha Z        PSCENC =       356.93175380
  Ewald energy   TEWEN  =     -4144.94064942
  -1/2 Hartree   DENC   =     -1373.38902686
  -V(xc)+E(xc)   XCENC  =       169.80833563
  PAW double counting   =      4303.51447814    -4880.00043689
  entropy T*S    EENTRO =        -0.00012654
  eigenvalues    EBANDS =       -10.18584540
  atomic energy  EATOM  =      5563.90732063
  free energy    TOTEN  =       -14.35419691 eV

  energy without entropy =      -14.35407037  energy(sigma->0) =      -14.35413364

 average (electrostatic) potential at core
  the test charge radii are     1.0053
  (the norm of the test charge is              1.0000)
       1 -41.0217       2 -41.0217       3 -41.0217       4 -41.0217

 E-fermi :   2.3008     XC(G=0): -11.7116     alpha+bet : -7.9441
   add alpha+bet to get absolut eigen values

 k-point   1 :       0.0000    0.0000    0.0000
  band No.  band energies     occupation
      1      -5.6808      2.00000
      2      -1.5894      2.00000
      3      -1.5894      2.00000
      4      -1.5894      2.00000
      5      -1.2481      2.00000
      6      -1.2481      2.00000
      7      -1.2481      2.00000
      8      -0.2203      2.00000
      9      -0.2203      2.00000
     10      -0.2203      2.00000
     11       0.3931      2.00000
     12       0.3931      2.00000
     13       0.8022      2.00000
     14       0.8022      2.00000
     15       0.8022      2.00000
     16       0.9165      2.00000
     17       0.9165      2.00000
     18       0.9165      2.00000
     19       0.9165      2.00000
     20       0.9165      2.00000
     21       0.9165      2.00000
     22       3.9492      0.00000
     23       3.9492      0.00000
     24       3.9492      0.00000
     25       8.1637      0.00000
     26       8.1637      0.00000

[...]

 k-point  84 :       0.4615    0.4615    0.4615
  band No.  band energies     occupation
      1      -1.8484      2.00000
      2      -1.7980      2.00000
      3      -1.7980      2.00000
      4      -1.7980      2.00000
      5      -0.2503      2.00000
      6      -0.2503      2.00000
      7      -0.2503      2.00000
      8      -0.2326      2.00000
      9      -0.2326      2.00000
     10      -0.2241      2.00000
     11      -0.2241      2.00000
     12      -0.2241      2.00000
     13       0.6929      2.00000
     14       0.6929      2.00000
     15       0.6929      2.00000
     16       0.8009      2.00000
     17       0.8009      2.00000
     18       0.8138      2.00000
     19       0.8138      2.00000
     20       0.8138      2.00000
     21       1.5314      2.00000
     22       1.9503      2.00000
     23       1.9503      2.00000
     24       1.9503      2.00000
     25       5.2472      0.00000
     26       5.2472      0.00000

 soft charge-density along one line, spin component           1
         0         1         2         3         4         5         6         7         8         9
 total charge-density along one line

------------------------ aborting loop because EDIFF is reached ----------------------------------------

  FREE ENERGIE OF THE ION-ELECTRON SYSTEM (eV)
  free  energy   TOTEN  =       -14.354197 eV

  energy  without entropy=      -14.354070  energy(sigma->0) =      -14.354134

  FORCE on cell =-STRESS in cart. coord.  units (eV/reduce length):
  Direction    X        Y        Z        XY       YZ       ZX
  Alpha Z    356.93    356.93    356.93
  Ewald    -1381.65  -1381.65  -1381.65     -0.00     -0.00      0.00
  Hartree    457.80    457.80    457.80     -0.00     -0.00     -0.00
  E(xc)     -249.42   -249.42   -249.42     -0.00     -0.00     -0.00
  Local      428.39    428.39    428.39     -0.00      0.00      0.00
  n-local   -148.81   -154.28   -155.32      0.13      1.80      0.69
  augment    224.94    224.94    224.94     -0.00     -0.00     -0.00
  Kinetic    317.57    309.42    304.01     -3.22      0.36     -1.07
  Total       -5.48     -5.48     -5.48     -0.00     -0.00      0.00
  in kB     -153.21   -153.21   -153.21     -0.00     -0.00      0.00

 VOLUME and BASIS-vectors are now :
  energy-cutoff  :      500.00
  volume of cell :       57.27
      direct lattice vectors                 reciprocal lattice vectors
     3.854600760  0.000000000  0.000000000     0.259430240  0.000000000  0.000000000
     0.000000000  3.854600760  0.000000000     0.000000000  0.259430240  0.000000000
     0.000000000  0.000000000  3.854600760     0.000000000  0.000000000  0.259430240

  length of vectors
     3.854600760  3.854600760  3.854600760     0.259430240  0.259430240  0.259430240

 FORCES acting on ions
    electron-ion (+dipol)            ewald-force                    non-local-force                 convergence-correction
   -.474E-13 -.461E-13 -.513E-13   -.258E-13 0.222E-14 -.132E-13   -.501E-25 0.000E+00 0.000E+00   0.643E-14 -.233E-15 0.166E-13
   0.534E-12 0.374E-11 0.229E-11   0.170E-13 0.991E-14 -.133E-13   0.000E+00 0.000E+00 0.517E-25   -.409E-15 0.801E-15 0.221E-14
   0.537E-12 -.439E-13 0.782E-11   -.772E-14 -.954E-14 0.140E-13   -.517E-25 0.000E+00 0.517E-25   -.255E-15 -.325E-15 -.101E-12
   -.480E-13 0.541E-12 0.538E-12   0.152E-13 -.185E-14 0.139E-13   -.517E-25 0.517E-25 0.000E+00   0.193E-13 -.753E-14 -.990E-13
   0.976E-12 0.419E-11 0.106E-10   -.134E-14 0.735E-15 0.150E-14   -.153E-24 0.517E-25 0.103E-24   0.251E-13 -.728E-14 -.181E-12

 POSITION                                       TOTAL-FORCE (eV/Angst)
      0.00000      0.00000      0.00000        -0.000000      0.000000      0.000000
      1.92730      1.92730      0.00000         0.000000     -0.000000      0.000000
      1.92730      0.00000      1.92730        -0.000000      0.000000      0.000000
      0.00000      1.92730      1.92730        -0.000000     -0.000000      0.000000
    total drift:                                0.000000      0.000000      0.000000

 mean value of Nose-termostat <S>:     1.000 mean value of <T> :     0.000
 mean temperature <T/S>/<1/S>  :     0.000