 vasp.4.6.28 25Jul05 complex
 executed on             LinuxIFC date 2017.01.06  18:38:00

 INCAR:
 POTCAR:   PAW_PBE Au 06Sep2000
 POTCAR:   PAW_PBE Au 06Sep2000
   VRHFIN =Au: s1d10

   TITEL  = PAW_PBE Au 06Sep2000
   POMASS =  196.966; ZVAL   =   11.000    mass and valenz
   ENMAX  =  229.948; ENMIN  =  172.461 eV
   QCUT   =   -4.111; QGAM   =    8.222    optimization parameters

   Description
     l     E      TYP  RCUT    TYP  RCUT
     2   .000     23  2.500
     2   .000     23  2.500
     0   .000     23  2.500
     0   .000     23  2.500
     1  -.200     23  2.500
     1   .000     23  2.500
     3   .000      7   .000

 PAW_PBE Au 06Sep2000                   :

 POSCAR: No title
  positions in direct lattice

 ion  position               nearest neighbor table
   1  0.750  0.750  0.500-   3 3.15  14 3.15  19 3.15  20 3.15   5 3.15  26 3.15   6 3.15  29 3.15
                            11 3.15  18 3.15  10 3.15   8 3.15
   2  0.750  0.750  0.000-   8 3.15  10 3.15  22 3.15  27 3.15  11 3.15  18 3.15  12 3.15  32 3.15
                             5 3.15  26 3.15   3 3.15  20 3.15
   3  0.750  0.000  0.250-   1 3.15   5 3.15   9 3.15  28 3.15  19 3.15  12 3.15  13 3.15  18 3.15
                            27 3.15   6 3.15   4 3.15   2 3.15
   4  0.750  0.250  0.500-   6 3.15   8 3.15  10 3.15  29 3.15  13 3.15  31 3.15  14 3.15  19 3.15
                            21 3.15  28 3.15   3 3.15  20 3.15
   5  0.000  0.750  0.250-   3 3.15  12 3.15  14 3.15  25 3.15  15 3.15   1 3.15  16 3.15  10 3.15
                             2 3.15   7 3.15  22 3.15   6 3.15
   6  0.000  0.000  0.500-   4 3.15   7 3.15  11 3.15  13 3.15   8 3.15  16 3.15   1 3.15  17 3.15
                             3 3.15  23 3.15  21 3.15   5 3.15
   7  0.250  0.750  0.500-   6 3.15  16 3.15  29 3.15  30 3.15  11 3.15  18 3.15  14 3.15  19 3.15
                             5 3.15  26 3.15  25 3.15  23 3.15
   8  0.750  0.000  0.750-   2 3.15   4 3.15  11 3.15  31 3.15  27 3.15   6 3.15  21 3.15  26 3.15
                            12 3.15  19 3.15   9 3.15   1 3.15
   9  0.750  0.250  0.000-   3 3.15  12 3.15  20 3.15  32 3.15  28 3.15  21 3.15  22 3.15  27 3.15
                            31 3.15  13 3.15  10 3.15   8 3.15
  10  0.750  0.500  0.250-   2 3.15   4 3.15  13 3.15  18 3.15  22 3.15  29 3.15  28 3.15   5 3.15
                            14 3.15  32 3.15   9 3.15   1 3.15
  11  0.000  0.750  0.750-   6 3.15   8 3.15  22 3.15  30 3.15   7 3.15   2 3.15  23 3.15  20 3.15
                             1 3.15  15 3.15  14 3.15  12 3.15
  12  0.000  0.000  0.000-   5 3.15   9 3.15  15 3.15  21 3.15   3 3.15  23 3.15   2 3.15  24 3.15
                            16 3.15   8 3.15  13 3.15  11 3.15
  13  0.000  0.250  0.250-   6 3.15  10 3.15  16 3.15  22 3.15   4 3.15  24 3.15   3 3.15  25 3.15
                            17 3.15   9 3.15  14 3.15  12 3.15
  14  0.000  0.500  0.500-   1 3.15   5 3.15  17 3.15  21 3.15  20 3.15  25 3.15   4 3.15   7 3.15
                            10 3.15  30 3.15  13 3.15  11 3.15
  15  0.250  0.750  0.000-  12 3.15  23 3.15  25 3.15  32 3.15  26 3.15   5 3.15  27 3.15  22 3.15
                            11 3.15  18 3.15  30 3.15  16 3.15
  16  0.250  0.000  0.250-   7 3.15  13 3.15  18 3.15  24 3.15   6 3.15  27 3.15   5 3.15  28 3.15
                            19 3.15  12 3.15  17 3.15  15 3.15
  17  0.250  0.250  0.500-  14 3.15  19 3.15  23 3.15  25 3.15  21 3.15  28 3.15   6 3.15  29 3.15
                            13 3.15  31 3.15  30 3.15  16 3.15
  18  0.500  0.750  0.250-  10 3.15  16 3.15  27 3.15  29 3.15   2 3.15   7 3.15   3 3.15  25 3.15
                             1 3.15  15 3.15  19 3.15  32 3.15
  19  0.500  0.000  0.500-   1 3.15  17 3.15  26 3.15  28 3.15   3 3.15  23 3.15   4 3.15   7 3.15
                             8 3.15  16 3.15  18 3.15  31 3.15
  20  0.750  0.500  0.750-   1 3.15   9 3.15  21 3.15  26 3.15  14 3.15  32 3.15  31 3.15  11 3.15
                            22 3.15  29 3.15   4 3.15   2 3.15
  21  0.000  0.250  0.750-  12 3.15  14 3.15  20 3.15  23 3.15   9 3.15  17 3.15   8 3.15  30 3.15
                            24 3.15   4 3.15  22 3.15   6 3.15
  22  0.000  0.500  0.000-   2 3.15  11 3.15  13 3.15  24 3.15  10 3.15  30 3.15   9 3.15  15 3.15
                            25 3.15  20 3.15  21 3.15   5 3.15
  23  0.250  0.000  0.750-  15 3.15  17 3.15  21 3.15  26 3.15  12 3.15  19 3.15  11 3.15  31 3.15
                            27 3.15   6 3.15  24 3.15   7 3.15
  24  0.250  0.250  0.000-  16 3.15  22 3.15  27 3.15  30 3.15  13 3.15  31 3.15  12 3.15  32 3.15
                            28 3.15  21 3.15  25 3.15  23 3.15
  25  0.250  0.500  0.250-   5 3.15  15 3.15  17 3.15  28 3.15  14 3.15  32 3.15  13 3.15  18 3.15
                            29 3.15  22 3.15  24 3.15   7 3.15
  26  0.500  0.750  0.750-  19 3.15  20 3.15  23 3.15  32 3.15   1 3.15  15 3.15  30 3.15   8 3.15
                             7 3.15   2 3.15  27 3.15  29 3.15
  27  0.500  0.000  0.000-   2 3.15  18 3.15  24 3.15  31 3.15  16 3.15   8 3.15   9 3.15  15 3.15
                             3 3.15  23 3.15  28 3.15  26 3.15
  28  0.500  0.250  0.250-   3 3.15  19 3.15  25 3.15  32 3.15  17 3.15   9 3.15  10 3.15  16 3.15
                             4 3.15  24 3.15  29 3.15  27 3.15
  29  0.500  0.500  0.500-   4 3.15   7 3.15  18 3.15  31 3.15  30 3.15  10 3.15  17 3.15   1 3.15
                            20 3.15  25 3.15  26 3.15  28 3.15
  30  0.250  0.500  0.750-   7 3.15  11 3.15  24 3.15  31 3.15  29 3.15  22 3.15  21 3.15  26 3.15
                            14 3.15  32 3.15  17 3.15  15 3.15
  31  0.500  0.250  0.750-   8 3.15  27 3.15  29 3.15  30 3.15  24 3.15   4 3.15  20 3.15  23 3.15
                             9 3.15  17 3.15  19 3.15  32 3.15
  32  0.500  0.500  0.000-   9 3.15  15 3.15  26 3.15  28 3.15  20 3.15  25 3.15  24 3.15   2 3.15
                            10 3.15  30 3.15  18 3.15  31 3.15

  LATTYP: Found a simple cubic cell.
 ALAT       =     8.9156168400

  Lattice vectors:

 A1 = (   8.9156168400,   0.0000000000,   0.0000000000)
 A2 = (   0.0000001600,   8.9156168400,   0.0000000000)
 A3 = (   0.0000001600,   0.0000001600,   8.9156168400)
 Subroutine PRICEL returns following result:

  LATTYP: Found a face centered cubic cell.
 ALAT       =     4.4578084600

  Lattice vectors:

 A1 = (   2.2289042500,   2.2289042100,  -0.0000000000)
 A2 = (   2.2289041700,  -0.0000000400,  -2.2289042100)
 A3 = (   0.0000000000,   2.2289041700,  -2.2289042100)

  32 primitive cells build up your supercell.

Analysis of symmetry for initial positions (statically):

 Routine SETGRP: Setting up the symmetry group for a
 simple cubic supercell.

 Subroutine GETGRP returns: Found 48 space group operations
 (whereof 48 operations were pure point group operations)
 out of a pool of 48 trial point group operations.

The static configuration has the point symmetry O_h .

Analysis of symmetry for dynamics (positions and initial velocities):

 Subroutine DYNSYM returns: Found 48 space group operations
 (whereof 48 operations were pure point group operations)
 out of a pool of 48 trial space group operations
 (whereof 48 operations were pure point group operations)
 and found also    32 'primitive' translations

The dynamic configuration has the point symmetry O_h .

 KPOINTS: Automatic mesh

Automatic generation of k-mesh.

 Subroutine IBZKPT returns following result:

 Found      4 irreducible k-points:

 Following reciprocal coordinates:
            Coordinates               Weight
  0.000000  0.000000  0.000000      1.000000
  0.333333  0.000000  0.000000      6.000000
  0.333333  0.333333  0.000000     12.000000
  0.333333  0.333333  0.333333      8.000000

 Following cartesian coordinates:
            Coordinates               Weight
  0.000000  0.000000  0.000000      1.000000
  0.037388 -0.000000 -0.000000      6.000000
  0.037388  0.037388 -0.000000     12.000000
  0.037388  0.037388  0.037388      8.000000

 I would recommend the setting:
   dimension x,y,z NGX =    71 NGY =   71 NGZ =   71
 SYSTEM =  No title
 POSCAR =  No title

 Startparameter for this run:
   NWRITE =      2    write-flag & timer
   PREC   = accura    medium, high low
   ISTART =      0    job   : 0-new  1-cont  2-samecut
   ICHARG =      2    charge: 1-file 2-atom 10-const
   ISPIN  =      1    spin polarized calculation?
   LNONCOLLINEAR =      F non collinear calculations
   LSORBIT =      F    spin-orbit coupling
   INIWAV =      1    electr: 0-lowe 1-rand  2-diag
   LASPH  =      F    aspherical Exc in radial PAW
   METAGGA=      F    non-selfconsistent MetaGGA calc.

 Electronic Relaxation 1
   ENCUT  =  600.0 eV  44.10 Ry    6.64 a.u.  17.81 17.81 17.81*2*pi/ulx,y,z
   ENINI  =  600.0     initial cutoff
   ENAUG  =  356.7 eV  augmentation charge cutoff
   NELM   =     60;   NELMIN=  2; NELMDL= -5     # of ELM steps
   EDIFF  = 0.1E-04   stopping-criterion for ELM
   LREAL  =      F    real-space projection
   LCOMPAT=      F    compatible to vasp.4.4
   LREAL_COMPAT= F    compatible to vasp.4.5.1-3
   GGA_COMPAT  = T    GGA compatible to vasp.4.4-vasp.4.6
   LMAXPAW     = -100 max onsite density
   LMAXMIX     =    2 max onsite mixed and CHGCAR
   VOSKOWN=      1    Vosko Wilk Nusair interpolation
   ROPT   =    0.00000
 Ionic relaxation
   EDIFFG = -.2E-01   stopping-criterion for IOM
   NSW    =    100    number of steps for IOM
   NBLOCK =      1;   KBLOCK =    100    inner block; outer block
   IBRION =      2    ionic relax: 0-MD 1-quasi-New 2-CG
   NFREE  =      1    steps in history (QN), initial steepest desc. (CG)
   ISIF   =      2    stress and relaxation
   IWAVPR =     11    prediction:  0-non 1-charg 2-wave 3-comb
   ISYM   =      2    0-nonsym 1-usesym 2-fastsym
   LCORR  =      T    Harris-Foulkes like correction to forces

   POTIM  =   0.50    time-step for ionic-motion
   TEIN   =    0.0    initial temperature
   TEBEG  =    0.0;   TEEND  =   0.0 temperature during run
   SMASS  =  -3.00    Nose mass-parameter (am)
   estimated Nose-frequenzy (Omega)   =  0.10E-29 period in steps =****** mass=  -0.182E-26a.u.
   NPACO  =    256;   APACO  = 16.0  distance and # of slots for P.C.
   PSTRESS=    0.0 pullay stress

  Mass of Ions in am
   POMASS = 196.97
  Ionic Valenz
   ZVAL   =  11.00
  Atomic Wigner-Seitz radii
   NELECT =     352.0000    total number of electrons
   NUPDOWN=      -1.0000    fix difference up-down

 DOS related values:
   EMIN   =  10.00;   EMAX   =-10.00  energy-range for DOS
   ISMEAR =     1;   SIGMA  =   0.20  broadening in eV -4-tet -1-fermi 0-gaus

 Electronic relaxation 2 (details)
   IALGO  =     38    algorithm
   LDIAG  =      T    sub-space diagonalisation
   IMIX   =      4    mixing-type and parameters
     AMIX     =   0.40;   BMIX     =  1.00
     AMIX_MAG =   1.60;   BMIX_MAG =  1.00
     AMIN     =   0.10
     WC   =   100.;   INIMIX=   1;  MIXPRE=   1

 Intra band minimization:
   WEIMIN = 0.0010     energy-eigenvalue tresh-hold
   EBREAK =  0.12E-07  absolut break condition
   DEPER  =   0.30     relativ break condition

   TIME   =   0.10     timestep for ELM

[...]
  weight for this iteration     100.00

[...]

 eigenvalues of (default mixing * dielectric matrix)
  average eigenvalue GAMMA=   1.0955
  1.0955

[...]

 eigenvalue-minimisations  :  1080
 total energy-change (2. order) :-0.1134231E-04  (-0.1725918E-05)
 number of electron  352.0000010 magnetization
 augmentation part   130.6704618 magnetization

 Broyden mixing:
  rms(total) = 0.35340E-03    rms(broyden)= 0.35334E-03
  rms(prec ) = 0.41526E-03
  weight for this iteration     100.00

 eigenvalues of (default mixing * dielectric matrix)
  average eigenvalue GAMMA=   1.8694
  3.0684  2.7295  2.3677  1.0344  1.0344  0.9821

[...]

----------------------------------------- Iteration    1(  12)  ---------------------------------------

 eigenvalue-minimisations  :   924
 total energy-change (2. order) : 0.4209625E-05  (-0.2605041E-06)
 number of electron  352.0000010 magnetization
 augmentation part   130.6704618 magnetization

 Free energy of the ion-electron system (eV)
  alpha Z        PSCENC =      2706.08790652
  Ewald energy   TEWEN  =    -28672.55223246
  -1/2 Hartree   DENC   =     -4771.58816244
  -V(xc)+E(xc)   XCENC  =       451.43322300
  PAW double counting   =     23427.97458082   -22728.65157676
  entropy T*S    EENTRO =        -0.08614538
  eigenvalues    EBANDS =      -143.46048533
  atomic energy  EATOM  =     29633.77399530
  free energy    TOTEN  =       -97.06889673 eV

  energy without entropy =      -96.98275135  energy(sigma->0) =      -97.04018161

 average (electrostatic) potential at core
  the test charge radii are     1.2098
  (the norm of the test charge is              1.0000)
       1 -47.6633       2 -47.6633       3 -47.6633       4 -47.6633       5 -47.6633
       6 -47.6633       7 -47.6633       8 -47.6633       9 -47.6633      10 -47.6633
      11 -47.6633      12 -47.6633      13 -47.6633      14 -47.6633      15 -47.6633
      16 -47.6633      17 -47.6633      18 -47.6633      19 -47.6633      20 -47.6633
      21 -47.6633      22 -47.6633      23 -47.6633      24 -47.6633      25 -47.6633
      26 -47.6633      27 -47.6633      28 -47.6633      29 -47.6633      30 -47.6633
      31 -47.6633      32 -47.6633

 E-fermi :   2.7289     XC(G=0): -11.1998     alpha+bet : -7.8361
   add alpha+bet to get absolut eigen values

 k-point   1 :       0.0000    0.0000    0.0000
  band No.  band energies     occupation
      1      -4.5702      2.00000
      2      -2.6014      2.00000
      3      -2.6014      2.00000
      4      -2.6014      2.00000
      5      -2.6014      2.00000
      6      -2.6014      2.00000
      7      -2.6014      2.00000
      8      -2.4751      2.00000
      9      -2.4751      2.00000
     10      -2.4751      2.00000
     11      -2.4751      2.00000
     12      -2.2296      2.00000
     13      -2.2296      2.00000
     14      -2.2296      2.00000
     15      -2.0435      2.00000
     16      -2.0435      2.00000
     17      -2.0435      2.00000
     18      -1.5981      2.00000
     19      -1.5981      2.00000
     20      -1.5981      2.00000
     21      -1.5981      2.00000
     22      -1.5981      2.00000
     23      -1.5981      2.00000
     24      -1.5981      2.00000
     25      -1.5981      2.00000
     26      -1.5981      2.00000
     27      -1.5981      2.00000
     28      -1.5981      2.00000
     29      -1.5981      2.00000
     30      -1.4647      2.00000
     31      -1.4647      2.00000
     32      -1.4647      2.00000
     33      -1.4647      2.00000
     34      -1.4647      2.00000
     35      -1.4647      2.00000
     36      -1.4285      2.00000
     37      -1.4285      2.00000
     38      -1.4284      2.00000
     39      -1.4284      2.00000
     40      -1.4284      2.00000
     41      -1.4284      2.00000
     42      -1.0172      2.00000
     43      -1.0172      2.00000
     44      -1.0172      2.00000
     45      -1.0172      2.00000
     46      -1.0172      2.00000
     47      -1.0172      2.00000
     48      -1.0172      2.00000
     49      -1.0172      2.00000
     50      -1.0172      2.00000
     51      -1.0172      2.00000
     52      -1.0172      2.00000
     53      -1.0172      2.00000
     54      -0.9652      2.00000
     55      -0.9652      2.00000
     56      -0.9652      2.00000
     57      -0.9652      2.00000
     58      -0.9652      2.00000
     59      -0.9652      2.00000
     60      -0.9652      2.00000
[...]
    198       6.8219     -0.00000
    199       6.8219     -0.00000
    200       8.3996      0.00000
    201       8.3996      0.00000
    202       8.3996      0.00000
    203       8.3996      0.00000
    204       8.3996      0.00000
    205       8.3996      0.00000
    206       8.3996      0.00000
    207       8.3996      0.00000
    208       8.3996      0.00000
    209       8.3996      0.00000
    210       8.3996      0.00000
    211       8.3996      0.00000
    212      10.0487      0.00000

[...]

 k-point   4 :       0.3333    0.3333    0.3333
  band No.  band energies     occupation
      1      -3.8387      2.00000
      2      -3.1957      2.00000
      3      -3.1957      2.00000
      4      -3.1957      2.00000
      5      -2.7398      2.00000
      6      -2.7398      2.00000
      7      -2.7398      2.00000
      8      -2.6140      2.00000
      9      -2.0344      2.00000
     10      -2.0344      2.00000
     11      -2.0344      2.00000
     12      -1.9561      2.00000
     13      -1.9561      2.00000
     14      -1.9561      2.00000
     15      -1.9162      2.00000
     16      -1.9162      2.00000
     17      -1.9162      2.00000
     18      -1.8042      2.00000
     19      -1.8042      2.00000
     20      -1.8042      2.00000
     21      -1.8042      2.00000
     22      -1.8042      2.00000
     23      -1.8042      2.00000
     24      -1.7392      2.00000
     25      -1.7392      2.00000
     26      -1.7392      2.00000
     27      -1.7201      2.00000
     28      -1.7201      2.00000
     29      -1.7201      2.00000
     30      -1.7201      2.00000
     31      -1.7201      2.00000
     32      -1.7201      2.00000
     33      -1.6648      2.00000
     34      -1.6648      2.00000
     35      -1.6648      2.00000
     36      -1.4360      2.00000
     37      -1.4360      2.00000
     38      -1.4360      2.00000
     39      -1.2943      2.00000
     40      -1.2943      2.00000
     41      -1.2943      2.00000
     42      -1.2943      2.00000
     43      -1.2943      2.00000
     44      -1.2943      2.00000
     45      -1.0622      2.00000
     46      -1.0622      2.00000
     47      -1.0622      2.00000
     48      -1.0466      2.00000
     49      -1.0466      2.00000
     50      -1.0466      2.00000
     51      -1.0466      2.00000
     52      -1.0466      2.00000
     53      -1.0466      2.00000
     54      -0.9656      2.00000
     55      -0.9656      2.00000
     56      -0.9656      2.00000
     57      -0.9394      2.00000
     58      -0.9394      2.00000
     59      -0.9394      2.00000
     60      -0.8448      2.00000
[...]
    198       6.1599     -0.00000
    199       7.2407     -0.00000
    200       7.2407     -0.00000
    201       7.2407     -0.00000
    202       7.2407     -0.00000
    203       7.2407     -0.00000
    204       7.2407     -0.00000
    205       8.2238      0.00000
    206       8.2238      0.00000
    207       8.2238      0.00000
    208       8.2238      0.00000
    209       8.2238      0.00000
    210       8.2277      0.00000
    211       8.3817      0.00000
    212       8.3817      0.00000

 soft charge-density along one line, spin component           1
         0         1         2         3         4         5         6         7         8         9
 total charge-density along one line

------------------------ aborting loop because EDIFF is reached ----------------------------------------

  FREE ENERGIE OF THE ION-ELECTRON SYSTEM (eV)
  free  energy   TOTEN  =       -97.068897 eV

  energy  without entropy=      -96.982751  energy(sigma->0) =      -97.040182

  FORCE on cell =-STRESS in cart. coord.  units (eV/reduce length):
  Direction    X        Y        Z        XY       YZ       ZX
  Alpha Z   2706.09   2706.09   2706.09
  Ewald    -9557.56  -9557.56  -9557.56     -0.00     -0.00     -0.00
  Hartree   1590.53   1590.53   1590.53     -0.00     -0.00     -0.00
  E(xc)    -1571.27  -1571.27  -1571.27     -0.00     -0.00     -0.00
  Local     2223.21   2223.21   2223.21      0.00      0.00      0.00
  n-local  -1721.06  -1711.13  -1705.64      3.61      4.94      4.94
  augment   1377.20   1377.20   1377.20     -0.00     -0.00     -0.00
  Kinetic   4871.88   4881.06   4885.85      1.23      2.92      2.92
  Total      -64.82    -64.82    -64.82     -0.00     -0.00     -0.00
  in kB     -146.55   -146.55   -146.55     -0.00     -0.00     -0.00

 VOLUME and BASIS-vectors are now :
  energy-cutoff  :      600.00
  volume of cell :      708.69
      direct lattice vectors                 reciprocal lattice vectors
     8.915616840  0.000000000  0.000000000     0.112162738 -0.000000002 -0.000000002
     0.000000160  8.915616840  0.000000000     0.000000000  0.112162738 -0.000000002
     0.000000160  0.000000160  8.915616840     0.000000000  0.000000000  0.112162738

  length of vectors
     8.915616840  8.915616840  8.915616840     0.112162738  0.112162738  0.112162738

 FORCES acting on ions
    electron-ion (+dipol)            ewald-force                    non-local-force                 convergence-correction
   0.649E-12 0.339E-11 -.400E-11   0.226E-13 0.986E-13 -.411E-13   -.713E-23 -.237E-22 0.165E-23   -.551E-15 -.498E-12 0.120E-12
   0.660E-12 -.983E-11 0.102E-11   0.248E-12 0.502E-13 -.256E-13   -.953E-23 -.102E-21 -.236E-22   0.111E-12 -.552E-12 -.213E-12
   0.633E-12 -.112E-12 0.908E-11   0.555E-13 0.668E-13 0.453E-13   0.889E-23 0.479E-22 -.414E-23   0.270E-12 0.245E-12 0.693E-12
   0.626E-12 -.533E-11 -.328E-11   0.817E-13 0.560E-13 0.296E-13   0.143E-22 -.117E-22 -.285E-22   0.893E-13 0.517E-12 0.879E-13
   -.625E-13 0.633E-12 0.178E-12   -.485E-13 0.666E-14 -.275E-13   0.714E-22 0.106E-22 0.234E-22   0.102E-13 -.510E-12 0.629E-12
   -.685E-13 -.963E-13 0.369E-12   0.118E-12 -.711E-13 0.493E-13   -.101E-21 0.290E-22 -.248E-22   0.111E-12 0.216E-12 0.178E-12
   0.166E-12 0.137E-11 0.171E-12   -.320E-13 0.506E-13 0.148E-14   -.107E-22 -.108E-23 -.265E-22   0.141E-13 -.400E-12 0.267E-12
   0.633E-12 -.954E-13 -.877E-11   0.285E-12 0.860E-13 -.480E-13   0.379E-22 0.799E-22 -.352E-22   0.263E-13 0.239E-12 -.654E-12
   0.638E-12 0.798E-11 0.101E-11   0.613E-13 0.119E-12 0.707E-13   0.286E-22 0.158E-21 0.124E-23   0.147E-12 0.583E-12 -.212E-12
   0.655E-12 -.434E-11 -.423E-11   0.622E-13 0.152E-12 0.113E-12   -.239E-22 0.132E-21 -.281E-22   0.679E-13 -.279E-12 0.598E-12
   -.743E-13 0.632E-12 0.626E-12   -.785E-13 0.289E-13 -.955E-13   0.703E-22 -.658E-22 0.232E-22   0.163E-12 -.392E-12 -.628E-12
   -.619E-13 -.102E-12 -.366E-13   -.617E-13 -.759E-13 0.706E-13   0.215E-21 -.898E-22 0.106E-22   0.602E-13 0.264E-12 -.241E-12
   -.681E-13 0.177E-12 0.182E-12   0.484E-13 0.666E-14 -.755E-14   -.772E-22 0.182E-22 -.840E-22   -.365E-13 0.521E-12 0.588E-12
   -.804E-13 0.410E-12 0.365E-12   -.392E-14 0.395E-13 0.192E-13   0.349E-22 -.983E-22 0.248E-23   0.123E-13 -.223E-12 0.480E-13
   0.155E-12 -.203E-11 -.787E-13   -.471E-13 -.333E-13 0.120E-13   -.485E-23 0.867E-22 0.736E-22   -.975E-13 -.536E-12 -.366E-12
   0.183E-12 -.867E-13 0.711E-12   -.395E-13 -.659E-13 0.195E-13   -.110E-21 0.136E-21 0.109E-21   -.250E-12 0.217E-12 0.717E-12
   0.188E-12 -.145E-11 0.171E-12   0.123E-12 0.222E-13 -.173E-14   -.796E-22 0.673E-23 -.583E-22   -.682E-13 0.420E-12 0.223E-12
   0.374E-12 0.147E-11 -.254E-11   0.467E-13 -.105E-12 -.595E-13   -.540E-22 0.608E-22 0.207E-22   -.513E-13 -.690E-12 0.722E-12
   0.380E-12 -.824E-13 0.140E-11   -.876E-13 -.152E-12 0.308E-13   -.716E-22 -.964E-22 -.318E-22   -.151E-12 0.137E-12 0.386E-12
   0.656E-12 -.506E-11 0.445E-11   -.813E-13 0.114E-12 0.302E-13   0.423E-22 -.145E-21 -.430E-22   -.192E-13 -.250E-12 -.626E-12
   -.800E-13 0.176E-12 0.619E-12   -.630E-13 0.786E-13 -.150E-12   -.150E-22 0.872E-23 0.662E-23   0.907E-13 0.391E-12 -.569E-12
   -.743E-13 0.416E-12 -.407E-13   0.884E-14 0.279E-13 0.222E-13   -.190E-22 0.104E-21 0.447E-22   0.412E-13 -.278E-12 -.124E-12
   0.182E-12 -.936E-13 -.206E-11   -.173E-12 0.915E-13 -.595E-13   0.125E-21 -.214E-21 0.430E-22   -.389E-14 0.182E-12 -.729E-12
   0.177E-12 0.178E-11 -.231E-12   0.506E-13 0.666E-14 0.372E-13   0.543E-22 -.157E-21 -.129E-21   -.125E-12 0.560E-12 -.331E-12
   0.159E-12 0.402E-12 -.251E-11   0.244E-13 0.404E-13 0.266E-13   -.527E-22 -.779E-22 -.430E-22   -.531E-13 -.209E-12 0.563E-12
   0.386E-12 -.526E-11 -.723E-12   -.847E-14 -.577E-14 -.155E-12   0.627E-22 -.464E-22 -.124E-23   -.205E-12 -.424E-12 -.762E-12
   0.374E-12 -.472E-13 0.646E-11   -.429E-13 -.682E-13 -.724E-13   -.108E-21 0.979E-22 -.430E-22   -.101E-12 0.238E-12 -.520E-12
   0.382E-12 -.650E-12 0.394E-11   -.878E-13 -.108E-12 -.155E-13   0.565E-22 0.996E-22 -.138E-22   -.399E-14 0.716E-12 0.616E-12
   0.393E-12 -.278E-11 0.178E-11   -.210E-12 -.341E-13 0.187E-13   0.618E-23 0.117E-21 -.844E-22   -.550E-13 -.136E-12 0.108E-12
   0.160E-12 0.408E-12 0.114E-11   0.373E-13 0.448E-13 -.417E-13   0.204E-23 -.671E-22 -.869E-23   0.355E-13 -.163E-12 -.606E-12
   0.394E-12 -.544E-12 -.616E-12   0.408E-13 0.577E-14 -.400E-13   0.629E-22 -.851E-22 -.761E-22   -.132E-12 0.423E-12 -.655E-12
   0.386E-12 0.359E-11 -.434E-12   -.159E-12 -.766E-13 -.277E-14   -.602E-23 -.137E-21 -.178E-22   -.837E-13 -.246E-12 -.242E-12
   0.902E-11 -.152E-10 0.413E-11   0.902E-13 0.396E-12 -.247E-12   0.144E-21 -.225E-21 -.445E-21   -.188E-12 0.799E-13 -.932E-12

 POSITION                                       TOTAL-FORCE (eV/Angst)
      6.68671      6.68671      4.45781        -0.000000     -0.000000     -0.000000
      6.68671      6.68671      0.00000        -0.000000      0.000000     -0.000000
      6.68671      0.00000      2.22890         0.000000      0.000000     -0.000000
      6.68671      2.22890      4.45781         0.000000      0.000000      0.000000
      0.00000      6.68671      2.22890        -0.000000     -0.000000     -0.000000
      0.00000      0.00000      4.45781        -0.000000      0.000000      0.000000
      2.22890      6.68671      4.45781        -0.000000      0.000000      0.000000
      6.68671      0.00000      6.68671         0.000000     -0.000000      0.000000
      6.68671      2.22890      0.00000         0.000000      0.000000      0.000000
      6.68671      4.45781      2.22890         0.000000      0.000000     -0.000000
      0.00000      6.68671      6.68671        -0.000000      0.000000      0.000000
      0.00000      0.00000      0.00000         0.000000     -0.000000     -0.000000
      0.00000      2.22890      2.22890         0.000000     -0.000000     -0.000000
      0.00000      4.45781      4.45781         0.000000     -0.000000     -0.000000
      2.22890      6.68671      0.00000         0.000000      0.000000      0.000000
      2.22890      0.00000      2.22890        -0.000000     -0.000000     -0.000000
      2.22890      2.22890      4.45781         0.000000      0.000000     -0.000000
      4.45781      6.68671      2.22890        -0.000000      0.000000     -0.000000
      4.45781      0.00000      4.45781        -0.000000      0.000000     -0.000000
      6.68671      4.45781      6.68671         0.000000     -0.000000      0.000000
      0.00000      2.22890      6.68671         0.000000      0.000000      0.000000
      0.00000      4.45781      0.00000         0.000000      0.000000      0.000000
      2.22890      0.00000      6.68671         0.000000      0.000000      0.000000
      2.22890      2.22890      0.00000         0.000000     -0.000000     -0.000000
      2.22890      4.45781      2.22890        -0.000000      0.000000     -0.000000
      4.45781      6.68671      6.68671         0.000000      0.000000      0.000000
      4.45781      0.00000      0.00000         0.000000      0.000000      0.000000
      4.45781      2.22890      2.22890         0.000000      0.000000     -0.000000
      4.45781      4.45781      4.45781        -0.000000     -0.000000      0.000000
      2.22890      4.45781      6.68671         0.000000      0.000000      0.000000
      4.45781      2.22890      6.68671         0.000000      0.000000      0.000000
      4.45781      4.45781      0.00000        -0.000000      0.000000     -0.000000
    total drift:                                0.000000     -0.000000      0.000000

 reached required accuracy - stopping structural energy minimisation
 writing wavefunctions