 vasp.4.6.28 25Jul05 complex
 executed on             LinuxIFC date 2017.01.08  09:58:18

 INCAR:
 POTCAR:   PAW_PBE Al 04Jan2001
 POTCAR:   PAW_PBE Al 04Jan2001
   VRHFIN =Al: s2p1

   TITEL  = PAW_PBE Al 04Jan2001
   POMASS =   26.982; ZVAL   =    3.000    mass and valenz
   ENMAX  =  240.300; ENMIN  =  180.225 eV
   QCUT   =   -4.203; QGAM   =    8.405    optimization parameters

   Description
     l     E      TYP  RCUT    TYP  RCUT
     0   .000     23  1.900
     0   .000     23  1.900
     1   .000     23  1.900
     1  1.000     23  1.900
     2   .000      7  1.900

 PAW_PBE Al 04Jan2001                   :

 POSCAR: Al
  positions in direct lattice

 ion  position               nearest neighbor table
   1  0.500  0.500  0.000-   2 2.88   3 2.88   4 2.88   2 2.88   3 2.88   2 2.88   4 2.88   2 2.88
                             3 2.88   4 2.88   3 2.88   4 2.88
   2  0.500  0.000  0.500-   1 2.88   3 2.88   4 2.88   1 2.88   4 2.88   1 2.88   3 2.88   1 2.88
                             3 2.88   4 2.88   4 2.88   3 2.88
   3  0.000  0.500  0.500-   1 2.88   2 2.88   4 2.88   1 2.88   4 2.88   2 2.88   4 2.88   4 2.88
                             1 2.88   2 2.88   1 2.88   2 2.88
   4  0.000  0.000  0.000-   1 2.88   2 2.88   3 2.88   2 2.88   3 2.88   1 2.88   3 2.88   3 2.88
                             1 2.88   2 2.88   2 2.88   1 2.88

  LATTYP: Found a simple cubic cell.
 ALAT       =     4.0776794334

  Lattice vectors:

 A1 = (   4.0776794334,   0.0000000000,   0.0000000000)
 A2 = (   0.0000000000,   4.0776794334,   0.0000000000)
 A3 = (   0.0000000000,   0.0000000000,   4.0776794334)
 Subroutine PRICEL returns following result:

  LATTYP: Found a face centered cubic cell.
 ALAT       =     4.0776794334

  Lattice vectors:

 A1 = (   2.0388397167,   2.0388397167,  -0.0000000000)
 A2 = (   2.0388397167,   0.0000000000,  -2.0388397167)
 A3 = (   0.0000000000,   2.0388397167,  -2.0388397167)

   4 primitive cells build up your supercell.

Analysis of symmetry for initial positions (statically):

 Routine SETGRP: Setting up the symmetry group for a
 simple cubic supercell.

 Subroutine GETGRP returns: Found 48 space group operations
 (whereof 48 operations were pure point group operations)
 out of a pool of 48 trial point group operations.

The static configuration has the point symmetry O_h .

Analysis of symmetry for dynamics (positions and initial velocities):

 Subroutine DYNSYM returns: Found 48 space group operations
 (whereof 48 operations were pure point group operations)
 out of a pool of 48 trial space group operations
 (whereof 48 operations were pure point group operations)
 and found also     4 'primitive' translations

The dynamic configuration has the point symmetry O_h .

 KPOINTS: Automatic mesh

Automatic generation of k-mesh.

 Subroutine IBZKPT returns following result:

 Found     84 irreducible k-points:

 Following reciprocal coordinates:
            Coordinates               Weight
  0.000000  0.000000  0.000000      1.000000
  0.083333  0.000000  0.000000      6.000000
  0.166667  0.000000  0.000000      6.000000
  0.250000  0.000000  0.000000      6.000000
  0.333333  0.000000  0.000000      6.000000
  0.416667  0.000000  0.000000      6.000000
  0.500000  0.000000  0.000000      3.000000
  0.083333  0.083333  0.000000     12.000000
  0.166667  0.083333  0.000000     24.000000
  0.250000  0.083333  0.000000     24.000000
  0.333333  0.083333  0.000000     24.000000
  0.416667  0.083333  0.000000     24.000000
  0.500000  0.083333  0.000000     12.000000
  0.166667  0.166667  0.000000     12.000000
  0.250000  0.166667  0.000000     24.000000
  0.333333  0.166667  0.000000     24.000000
  0.416667  0.166667  0.000000     24.000000
  0.500000  0.166667  0.000000     12.000000
  0.250000  0.250000  0.000000     12.000000
  0.333333  0.250000  0.000000     24.000000
  0.416667  0.250000  0.000000     24.000000
  0.500000  0.250000  0.000000     12.000000
  0.333333  0.333333  0.000000     12.000000
  0.416667  0.333333  0.000000     24.000000
  0.500000  0.333333  0.000000     12.000000
  0.416667  0.416667  0.000000     12.000000
  0.500000  0.416667  0.000000     12.000000
  0.500000  0.500000  0.000000      3.000000
  0.083333  0.083333  0.083333      8.000000
  0.166667  0.083333  0.083333     24.000000
  0.250000  0.083333  0.083333     24.000000
  0.333333  0.083333  0.083333     24.000000
  0.416667  0.083333  0.083333     24.000000
  0.500000  0.083333  0.083333     12.000000
  0.166667  0.166667  0.083333     24.000000
  0.250000  0.166667  0.083333     48.000000
  0.333333  0.166667  0.083333     48.000000
  0.416667  0.166667  0.083333     48.000000
  0.500000  0.166667  0.083333     24.000000
  0.250000  0.250000  0.083333     24.000000
  0.333333  0.250000  0.083333     48.000000
  0.416667  0.250000  0.083333     48.000000
  0.500000  0.250000  0.083333     24.000000
  0.333333  0.333333  0.083333     24.000000
  0.416667  0.333333  0.083333     48.000000
  0.500000  0.333333  0.083333     24.000000
  0.416667  0.416667  0.083333     24.000000
  0.500000  0.416667  0.083333     24.000000
  0.500000  0.500000  0.083333      6.000000
  0.166667  0.166667  0.166667      8.000000
  0.250000  0.166667  0.166667     24.000000
  0.333333  0.166667  0.166667     24.000000
  0.416667  0.166667  0.166667     24.000000
  0.500000  0.166667  0.166667     12.000000
  0.250000  0.250000  0.166667     24.000000
  0.333333  0.250000  0.166667     48.000000
  0.416667  0.250000  0.166667     48.000000
  0.500000  0.250000  0.166667     24.000000
  0.333333  0.333333  0.166667     24.000000
  0.416667  0.333333  0.166667     48.000000
[...]
  0.416667  0.333333  0.250000     48.000000
  0.500000  0.333333  0.250000     24.000000
  0.416667  0.416667  0.250000     24.000000
  0.500000  0.416667  0.250000     24.000000
  0.500000  0.500000  0.250000      6.000000
  0.333333  0.333333  0.333333      8.000000
  0.416667  0.333333  0.333333     24.000000
  0.500000  0.333333  0.333333     12.000000
  0.416667  0.416667  0.333333     24.000000
  0.500000  0.416667  0.333333     24.000000
  0.500000  0.500000  0.333333      6.000000
  0.416667  0.416667  0.416667      8.000000
  0.500000  0.416667  0.416667     12.000000
  0.500000  0.500000  0.416667      6.000000
  0.500000  0.500000  0.500000      1.000000

 Following cartesian coordinates:
            Coordinates               Weight
  0.000000  0.000000  0.000000      1.000000
  0.020641  0.000000  0.000000      6.000000
  0.041282  0.000000  0.000000      6.000000
  0.061922  0.000000  0.000000      6.000000
  0.082563  0.000000  0.000000      6.000000
  0.103204  0.000000  0.000000      6.000000
  0.123845  0.000000  0.000000      3.000000
  0.020641  0.020641  0.000000     12.000000
  0.041282  0.020641  0.000000     24.000000
  0.061922  0.020641  0.000000     24.000000
  0.082563  0.020641  0.000000     24.000000
  0.103204  0.020641  0.000000     24.000000
  0.123845  0.020641  0.000000     12.000000
  0.041282  0.041282  0.000000     12.000000
  0.061922  0.041282  0.000000     24.000000
  0.082563  0.041282  0.000000     24.000000
  0.103204  0.041282  0.000000     24.000000
  0.123845  0.041282  0.000000     12.000000
  0.061922  0.061922  0.000000     12.000000
  0.082563  0.061922  0.000000     24.000000
  0.103204  0.061922  0.000000     24.000000
  0.123845  0.061922  0.000000     12.000000
  0.082563  0.082563  0.000000     12.000000
  0.103204  0.082563  0.000000     24.000000
  0.123845  0.082563  0.000000     12.000000
  0.103204  0.103204  0.000000     12.000000
  0.123845  0.103204  0.000000     12.000000
  0.123845  0.123845  0.000000      3.000000
  0.020641  0.020641  0.020641      8.000000
  0.041282  0.020641  0.020641     24.000000
  0.061922  0.020641  0.020641     24.000000
  0.082563  0.020641  0.020641     24.000000
  0.103204  0.020641  0.020641     24.000000
  0.123845  0.020641  0.020641     12.000000
  0.041282  0.041282  0.020641     24.000000
  0.061922  0.041282  0.020641     48.000000
  0.082563  0.041282  0.020641     48.000000
  0.103204  0.041282  0.020641     48.000000
  0.123845  0.041282  0.020641     24.000000
  0.061922  0.061922  0.020641     24.000000
  0.082563  0.061922  0.020641     48.000000
  0.103204  0.061922  0.020641     48.000000
  0.123845  0.061922  0.020641     24.000000
  0.082563  0.082563  0.020641     24.000000
  0.103204  0.082563  0.020641     48.000000
  0.123845  0.082563  0.020641     24.000000
  0.103204  0.103204  0.020641     24.000000
  0.123845  0.103204  0.020641     24.000000
  0.123845  0.123845  0.020641      6.000000
  0.041282  0.041282  0.041282      8.000000
  0.061922  0.041282  0.041282     24.000000
  0.082563  0.041282  0.041282     24.000000
  0.103204  0.041282  0.041282     24.000000
  0.123845  0.041282  0.041282     12.000000
  0.061922  0.061922  0.041282     24.000000
  0.082563  0.061922  0.041282     48.000000
  0.103204  0.061922  0.041282     48.000000
  0.123845  0.061922  0.041282     24.000000
  0.082563  0.082563  0.041282     24.000000
  0.103204  0.082563  0.041282     48.000000
[...]
  0.103204  0.082563  0.061922     48.000000
  0.123845  0.082563  0.061922     24.000000
  0.103204  0.103204  0.061922     24.000000
  0.123845  0.103204  0.061922     24.000000
  0.123845  0.123845  0.061922      6.000000
  0.082563  0.082563  0.082563      8.000000
  0.103204  0.082563  0.082563     24.000000
  0.123845  0.082563  0.082563     12.000000
  0.103204  0.103204  0.082563     24.000000
  0.123845  0.103204  0.082563     24.000000
  0.123845  0.123845  0.082563      6.000000
  0.103204  0.103204  0.103204      8.000000
  0.123845  0.103204  0.103204     12.000000
  0.123845  0.123845  0.103204      6.000000
  0.123845  0.123845  0.123845      1.000000

 I would recommend the setting:
   dimension x,y,z NGX =    36 NGY =   36 NGZ =   36
 SYSTEM =  unknown system
 POSCAR =  Al

 Startparameter for this run:
   NWRITE =      2    write-flag & timer
   PREC   = accura    medium, high low
   ISTART =      0    job   : 0-new  1-cont  2-samecut
   ICHARG =      2    charge: 1-file 2-atom 10-const
   ISPIN  =      1    spin polarized calculation?
   LNONCOLLINEAR =      F non collinear calculations
   LSORBIT =      F    spin-orbit coupling
   INIWAV =      1    electr: 0-lowe 1-rand  2-diag
   LASPH  =      F    aspherical Exc in radial PAW
   METAGGA=      F    non-selfconsistent MetaGGA calc.

 Electronic Relaxation 1
   ENCUT  =  750.0 eV  55.12 Ry    7.42 a.u.   9.11  9.11  9.11*2*pi/ulx,y,z
   ENINI  =  750.0     initial cutoff
   ENAUG  =  291.1 eV  augmentation charge cutoff
   NELM   =     60;   NELMIN=  2; NELMDL= -5     # of ELM steps
   EDIFF  = 0.1E-07   stopping-criterion for ELM
   LREAL  =      F    real-space projection
   LCOMPAT=      F    compatible to vasp.4.4
   LREAL_COMPAT= F    compatible to vasp.4.5.1-3
   GGA_COMPAT  = T    GGA compatible to vasp.4.4-vasp.4.6
   LMAXPAW     = -100 max onsite density
   LMAXMIX     =    2 max onsite mixed and CHGCAR
   VOSKOWN=      0    Vosko Wilk Nusair interpolation
   ROPT   =    0.00000
 Ionic relaxation
   EDIFFG = 0.1E-06   stopping-criterion for IOM
[...]
   0.12384495  0.12384495  0.10320412       0.003
   0.12384495  0.12384495  0.12384495       0.001

 k-points in reciprocal lattice and weights: Automatic mesh
   0.00000000  0.00000000  0.00000000       0.001
   0.08333333  0.00000000  0.00000000       0.003
   0.16666667  0.00000000  0.00000000       0.003
   0.25000000  0.00000000  0.00000000       0.003
   0.33333333  0.00000000  0.00000000       0.003
   0.41666667  0.00000000  0.00000000       0.003
   0.50000000  0.00000000  0.00000000       0.002
   0.08333333  0.08333333  0.00000000       0.007
   0.16666667  0.08333333  0.00000000       0.014
   0.25000000  0.08333333  0.00000000       0.014
   0.33333333  0.08333333  0.00000000       0.014
   0.41666667  0.08333333  0.00000000       0.014
   0.50000000  0.08333333  0.00000000       0.007
   0.16666667  0.16666667  0.00000000       0.007
   0.25000000  0.16666667  0.00000000       0.014
   0.33333333  0.16666667  0.00000000       0.014
   0.41666667  0.16666667  0.00000000       0.014
   0.50000000  0.16666667  0.00000000       0.007
   0.25000000  0.25000000  0.00000000       0.007
   0.33333333  0.25000000  0.00000000       0.014
   0.41666667  0.25000000  0.00000000       0.014
   0.50000000  0.25000000  0.00000000       0.007
   0.33333333  0.33333333  0.00000000       0.007
   0.41666667  0.33333333  0.00000000       0.014
   0.50000000  0.33333333  0.00000000       0.007
   0.41666667  0.41666667  0.00000000       0.007
   0.50000000  0.41666667  0.00000000       0.007
   0.50000000  0.50000000  0.00000000       0.002
   0.08333333  0.08333333  0.08333333       0.005
   0.16666667  0.08333333  0.08333333       0.014
   0.25000000  0.08333333  0.08333333       0.014
   0.33333333  0.08333333  0.08333333       0.014
   0.41666667  0.08333333  0.08333333       0.014
   0.50000000  0.08333333  0.08333333       0.007
   0.16666667  0.16666667  0.08333333       0.014
   0.25000000  0.16666667  0.08333333       0.028
   0.33333333  0.16666667  0.08333333       0.028
   0.41666667  0.16666667  0.08333333       0.028
   0.50000000  0.16666667  0.08333333       0.014
   0.25000000  0.25000000  0.08333333       0.014
   0.33333333  0.25000000  0.08333333       0.028
   0.41666667  0.25000000  0.08333333       0.028
   0.50000000  0.25000000  0.08333333       0.014
   0.33333333  0.33333333  0.08333333       0.014
   0.41666667  0.33333333  0.08333333       0.028
   0.50000000  0.33333333  0.08333333       0.014
   0.41666667  0.41666667  0.08333333       0.014
   0.50000000  0.41666667  0.08333333       0.014
   0.50000000  0.50000000  0.08333333       0.003
   0.16666667  0.16666667  0.16666667       0.005
   0.25000000  0.16666667  0.16666667       0.014
   0.33333333  0.16666667  0.16666667       0.014
   0.41666667  0.16666667  0.16666667       0.014
   0.50000000  0.16666667  0.16666667       0.007
   0.25000000  0.25000000  0.16666667       0.014
   0.33333333  0.25000000  0.16666667       0.028
   0.41666667  0.25000000  0.16666667       0.028
   0.50000000  0.25000000  0.16666667       0.014
   0.33333333  0.33333333  0.16666667       0.014
   0.41666667  0.33333333  0.16666667       0.028
[...]
   0.41666667  0.33333333  0.25000000       0.028
   0.50000000  0.33333333  0.25000000       0.014
   0.41666667  0.41666667  0.25000000       0.014
   0.50000000  0.41666667  0.25000000       0.014
   0.50000000  0.50000000  0.25000000       0.003
   0.33333333  0.33333333  0.33333333       0.005
   0.41666667  0.33333333  0.33333333       0.014
   0.50000000  0.33333333  0.33333333       0.007
   0.41666667  0.41666667  0.33333333       0.014
   0.50000000  0.41666667  0.33333333       0.014
   0.50000000  0.50000000  0.33333333       0.003
   0.41666667  0.41666667  0.41666667       0.005
   0.50000000  0.41666667  0.41666667       0.007
   0.50000000  0.50000000  0.41666667       0.003
   0.50000000  0.50000000  0.50000000       0.001

 position of ions in fractional coordinates (direct lattice)
   0.50000000  0.50000000  0.00000000
   0.50000000  0.00000000  0.50000000
   0.00000000  0.50000000  0.50000000
   0.00000000  0.00000000  0.00000000

 position of ions in cartesian coordinates  (Angst):
   2.03883972  2.03883972  0.00000000
   2.03883972  0.00000000  2.03883972
   0.00000000  2.03883972  2.03883972
   0.00000000  0.00000000  0.00000000

 k-point  1 :  0.00000.00000.0000  plane waves:   3119
 k-point  2 :  0.08330.00000.0000  plane waves:   3155
 k-point  3 :  0.16670.00000.0000  plane waves:   3142
 k-point  4 :  0.25000.00000.0000  plane waves:   3142
 k-point  5 :  0.33330.00000.0000  plane waves:   3166
 k-point  6 :  0.41670.00000.0000  plane waves:   3162
 k-point  7 :  0.50000.00000.0000  plane waves:   3178
 k-point  8 :  0.08330.08330.0000  plane waves:   3143
 k-point  9 :  0.16670.08330.0000  plane waves:   3148
 k-point 10 :  0.25000.08330.0000  plane waves:   3155
 k-point 11 :  0.33330.08330.0000  plane waves:   3152
 k-point 12 :  0.41670.08330.0000  plane waves:   3155
 k-point 13 :  0.50000.08330.0000  plane waves:   3168
 k-point 14 :  0.16670.16670.0000  plane waves:   3159
 k-point 15 :  0.25000.16670.0000  plane waves:   3148
 k-point 16 :  0.33330.16670.0000  plane waves:   3163
 k-point 17 :  0.41670.16670.0000  plane waves:   3162
 k-point 18 :  0.50000.16670.0000  plane waves:   3162
 k-point 19 :  0.25000.25000.0000  plane waves:   3171
 k-point 20 :  0.33330.25000.0000  plane waves:   3167
 k-point 21 :  0.41670.25000.0000  plane waves:   3166
 k-point 22 :  0.50000.25000.0000  plane waves:   3176
 k-point 23 :  0.33330.33330.0000  plane waves:   3171
 k-point 24 :  0.41670.33330.0000  plane waves:   3164
 k-point 25 :  0.50000.33330.0000  plane waves:   3148
 k-point 26 :  0.41670.41670.0000  plane waves:   3171
 k-point 27 :  0.50000.41670.0000  plane waves:   3156
 k-point 28 :  0.50000.50000.0000  plane waves:   3168
 k-point 29 :  0.08330.08330.0833  plane waves:   3140
 k-point 30 :  0.16670.08330.0833  plane waves:   3151
 k-point 31 :  0.25000.08330.0833  plane waves:   3146
 k-point 32 :  0.33330.08330.0833  plane waves:   3145
 k-point 33 :  0.41670.08330.0833  plane waves:   3168
 k-point 34 :  0.50000.08330.0833  plane waves:   3156
 k-point 35 :  0.16670.16670.0833  plane waves:   3150
 k-point 36 :  0.25000.16670.0833  plane waves:   3148
 k-point 37 :  0.33330.16670.0833  plane waves:   3156
 k-point 38 :  0.41670.16670.0833  plane waves:   3175
 k-point 39 :  0.50000.16670.0833  plane waves:   3166
 k-point 40 :  0.25000.25000.0833  plane waves:   3155
 k-point 41 :  0.33330.25000.0833  plane waves:   3162
 k-point 42 :  0.41670.25000.0833  plane waves:   3162
 k-point 43 :  0.50000.25000.0833  plane waves:   3170
 k-point 44 :  0.33330.33330.0833  plane waves:   3168
 k-point 45 :  0.41670.33330.0833  plane waves:   3167
 k-point 46 :  0.50000.33330.0833  plane waves:   3172
 k-point 47 :  0.41670.41670.0833  plane waves:   3169
 k-point 48 :  0.50000.41670.0833  plane waves:   3158
 k-point 49 :  0.50000.50000.0833  plane waves:   3172
 k-point 50 :  0.16670.16670.1667  plane waves:   3164
 k-point 51 :  0.25000.16670.1667  plane waves:   3151
 k-point 52 :  0.33330.16670.1667  plane waves:   3153
 k-point 53 :  0.41670.16670.1667  plane waves:   3174
 k-point 54 :  0.50000.16670.1667  plane waves:   3150
 k-point 55 :  0.25000.25000.1667  plane waves:   3158
 k-point 56 :  0.33330.25000.1667  plane waves:   3170
 k-point 57 :  0.41670.25000.1667  plane waves:   3163
 k-point 58 :  0.50000.25000.1667  plane waves:   3166
 k-point 59 :  0.33330.33330.1667  plane waves:   3159
 k-point 60 :  0.41670.33330.1667  plane waves:   3167
[...]
 k-point 70 :  0.41670.33330.2500  plane waves:   3169
 k-point 71 :  0.50000.33330.2500  plane waves:   3156
 k-point 72 :  0.41670.41670.2500  plane waves:   3164
 k-point 73 :  0.50000.41670.2500  plane waves:   3168
 k-point 74 :  0.50000.50000.2500  plane waves:   3160
 k-point 75 :  0.33330.33330.3333  plane waves:   3163
 k-point 76 :  0.41670.33330.3333  plane waves:   3174
 k-point 77 :  0.50000.33330.3333  plane waves:   3178
 k-point 78 :  0.41670.41670.3333  plane waves:   3164
 k-point 79 :  0.50000.41670.3333  plane waves:   3164
 k-point 80 :  0.50000.50000.3333  plane waves:   3164
 k-point 81 :  0.41670.41670.4167  plane waves:   3175
 k-point 82 :  0.50000.41670.4167  plane waves:   3160
 k-point 83 :  0.50000.50000.4167  plane waves:   3148
 k-point 84 :  0.50000.50000.5000  plane waves:   3184

 maximum and minimum number of plane-waves per node :   3184  3119

 maximum number of plane-waves:   3184
 maximal index in each direction:
   IXMAX=  9   IYMAX=  9   IZMAX=  9
   IXMIN= -9   IYMIN= -9   IZMIN= -9

 WARNING: wrap around error must be expected set NGX to  38
 WARNING: wrap around error must be expected set NGY to  38
 WARNING: wrap around error must be expected set NGZ to  38

 parallel 3dFFT wavefunction:
    minimum data exchange during FFTs selected (reduces bandwidth)
 parallel 3dFFT charge:
    minimum data exchange during FFTs selected (reduces bandwidth)

Broyden mixing: mesh for mixing (old mesh)
   NGX = 19   NGY = 19   NGZ = 19
  (NGX  = 72   NGY  = 72   NGZ  = 72)
 gives a total of   6859 points
 initial charge density was supplied:
 charge density of overlapping atoms calculated
 number of electron   12.0000000 magnetization
 keeping initial charge density in first step

 Maximum index for augmentation-charges        51975 (set IRDMAX)

 First call to EWALD:  gamma=   0.435
 Maximum number of real-space cells 3x 3x 3
 Maximum number of reciprocal cells 3x 3x 3

----------------------------------------- Iteration    1(   1)  ---------------------------------------

 eigenvalue-minimisations  :  2016
 total energy-change (2. order) : 0.1178053E+02  (-0.5351693E+03)
 number of electron   12.0000000 magnetization
 augmentation part    12.0000000 magnetization

 Free energy of the ion-electron system (eV)
  alpha Z        PSCENC =        -0.79262257
  Ewald energy   TEWEN  =      -291.43504708
  -1/2 Hartree   DENC   =        -0.44887268
  -V(xc)+E(xc)   XCENC  =      -105.15191319
  PAW double counting   =       142.21701965      -14.39593217
  entropy T*S    EENTRO =        -0.00015740
  eigenvalues    EBANDS =        67.63367082
  atomic energy  EATOM  =       214.15438658
  free energy    TOTEN  =        11.78053196 eV

  energy without entropy =       11.78068936  energy(sigma->0) =       11.78061066

[...]

 eigenvalue-minimisations  :  2440
 total energy-change (2. order) :-0.2584656E+02  (-0.2436583E+02)
 number of electron   12.0000000 magnetization
 augmentation part    12.0000000 magnetization

[...]

 Broyden mixing:
  rms(total) = 0.18445E+00    rms(broyden)= 0.18445E+00
  rms(prec ) = 0.42959E+00
  weight for this iteration     100.00

[...]

 eigenvalues of (default mixing * dielectric matrix)
  average eigenvalue GAMMA=   2.6266
  2.6266

[...]

 eigenvalue-minimisations  :  1556
 total energy-change (2. order) : 0.1964655E-06  (-0.2226880E-09)
 number of electron   12.0000000 magnetization
 augmentation part    -0.1580033 magnetization

[...]

 Broyden mixing:
  rms(total) = 0.11447E-05    rms(broyden)= 0.11447E-05
  rms(prec ) = 0.22475E-05
  weight for this iteration     100.00

 eigenvalues of (default mixing * dielectric matrix)
  average eigenvalue GAMMA=   1.8980
  2.6825  2.6404  2.6404  2.4133  0.9902  0.9902  0.9290

[...]

----------------------------------------- Iteration    1(  13)  ---------------------------------------

 eigenvalue-minimisations  :  1372
 total energy-change (2. order) :-0.1891522E-08  (-0.4481714E-11)
 number of electron   12.0000000 magnetization
 augmentation part    -0.1580032 magnetization

 Free energy of the ion-electron system (eV)
  alpha Z        PSCENC =        -0.79262257
  Ewald energy   TEWEN  =      -291.43504708
  -1/2 Hartree   DENC   =        -0.39852307
  -V(xc)+E(xc)   XCENC  =      -104.73831939
  PAW double counting   =       142.34128461      -14.55332440
  entropy T*S    EENTRO =        -0.00034666
  eigenvalues    EBANDS =        40.46454403
  atomic energy  EATOM  =       214.15438658
  free energy    TOTEN  =       -14.95796795 eV

  energy without entropy =      -14.95762129  energy(sigma->0) =      -14.95779462

 average (electrostatic) potential at core
  the test charge radii are     1.0406
  (the norm of the test charge is              1.0000)
       1 -72.9451       2 -72.9451       3 -72.9451       4 -72.9451

 E-fermi :   7.7081     XC(G=0): -10.1001     alpha+bet :-14.4811
   add alpha+bet to get absolut eigen values

 k-point   1 :       0.0000    0.0000    0.0000
  band No.  band energies     occupation
      1      -3.2282      2.00000
      2       4.8626      2.00000
      3       4.8626      2.00000
      4       4.8626      2.00000
      5       6.1241      2.00000
      6       6.1241      2.00000
      7       6.1241      2.00000
      8      12.9723      0.00000
      9      12.9723      0.00000
     10      12.9730      0.00000
     11      13.1915      0.00000
     12      13.1915      0.00000

[...]

 k-point  84 :       0.5000    0.5000    0.5000
  band No.  band energies     occupation
      1       3.2357      2.00000
      2       3.2357      2.00000
      3       3.2357      2.00000
      4       3.2357      2.00000
      5       3.3772      2.00000
      6       3.3772      2.00000
      7       3.3772      2.00000
      8       3.3772      2.00000
      9      18.8469      0.00000
     10      18.8469      0.00000
     11      18.8469      0.00000
     12      18.8469      0.00000

 soft charge-density along one line, spin component           1
         0         1         2         3         4         5         6         7         8         9
 total charge-density along one line

------------------------ aborting loop because EDIFF is reached ----------------------------------------

  FREE ENERGIE OF THE ION-ELECTRON SYSTEM (eV)
  free  energy   TOTEN  =       -14.957968 eV

  energy  without entropy=      -14.957621  energy(sigma->0) =      -14.957795

  FORCE on cell =-STRESS in cart. coord.  units (eV/reduce length):
  Direction    X        Y        Z        XY       YZ       ZX
  Alpha Z     -0.79     -0.79     -0.79
  Ewald      -97.15    -97.15    -97.15      0.00      0.00      0.00
  Hartree      0.13      0.13      0.13      0.00     -0.00     -0.00
  E(xc)      -33.97    -33.97    -33.97     -0.00      0.00      0.00
  Local        0.93      0.93      0.93      0.00     -0.00     -0.00
  n-local     74.14     74.82     76.58      0.20      0.86      0.37
  augment     -4.22     -4.22     -4.22      0.00      0.00      0.00
  Kinetic     56.09     59.28     61.70      1.92     -7.79     -1.82
  Total       -0.86     -0.86     -0.86      0.00     -0.00      0.00
  in kB      -20.24    -20.24    -20.24      0.00     -0.00      0.00

 VOLUME and BASIS-vectors are now :
  energy-cutoff  :      750.00
  volume of cell :       67.80
      direct lattice vectors                 reciprocal lattice vectors
     4.077679433  0.000000000  0.000000000     0.245237522  0.000000000  0.000000000
     0.000000000  4.077679433  0.000000000     0.000000000  0.245237522  0.000000000
     0.000000000  0.000000000  4.077679433     0.000000000  0.000000000  0.245237522

  length of vectors
     4.077679433  4.077679433  4.077679433     0.245237522  0.245237522  0.245237522

 FORCES acting on ions
    electron-ion (+dipol)            ewald-force                    non-local-force                 convergence-correction
   -.596E-14 -.738E-14 0.169E-13   0.690E-16 0.376E-15 -.641E-15   -.129E-25 0.000E+00 -.808E-27   0.212E-15 -.269E-15 0.111E-15
   -.590E-14 -.334E-16 -.351E-13   0.119E-16 -.243E-15 0.283E-15   -.485E-26 0.646E-26 0.646E-26   0.188E-15 0.267E-15 -.115E-15
   -.294E-15 -.488E-14 -.394E-14   -.124E-15 0.175E-15 0.265E-15   0.889E-26 -.323E-26 -.258E-25   -.216E-15 -.275E-15 -.112E-15
   0.990E-16 0.535E-15 -.377E-15   -.181E-15 -.443E-15 -.127E-15   -.217E-26 0.323E-26 0.323E-26   -.187E-15 0.280E-15 0.116E-15
   -.121E-13 -.118E-13 -.224E-13   -.224E-15 -.135E-15 -.220E-15   -.111E-25 0.646E-26 -.170E-25   -.281E-17 0.436E-17 -.928E-18

 POSITION                                       TOTAL-FORCE (eV/Angst)
      2.03884      2.03884      0.00000         0.000000      0.000000      0.000000
      2.03884      0.00000      2.03884         0.000000      0.000000      0.000000
      0.00000      2.03884      2.03884         0.000000     -0.000000      0.000000
      0.00000      0.00000      0.00000         0.000000     -0.000000      0.000000
    total drift:                               -0.000000     -0.000000     -0.000000

 mean value of Nose-termostat <S>:     1.000 mean value of <T> :     0.000
 mean temperature <T/S>/<1/S>  :     0.000