 vasp.4.6.28 25Jul05 complex
 executed on             LinuxIFC date 2017.01.11  19:24:13

 INCAR:
 POTCAR:   PAW_PBE Cu 05Jan2001
 POTCAR:   PAW_PBE Cu 05Jan2001
   VRHFIN =Cu: d10 p1

   TITEL  = PAW_PBE Cu 05Jan2001
   POMASS =   63.546; ZVAL   =   11.000    mass and valenz
   ENMAX  =  273.214; ENMIN  =  204.910 eV
   QCUT   =   -4.481; QGAM   =    8.962    optimization parameters

   Description
     l     E      TYP  RCUT    TYP  RCUT
     2   .000     23  2.300
     2   .000     23  2.300
     0   .000     23  2.300
     0   .000     23  2.300
     1  -.200     23  2.300
     1   .000     23  2.300
     3   .000      7   .000

 PAW_PBE Cu 05Jan2001                   :

 POSCAR: Cu
  positions in direct lattice
  velocities in cartesian coordinates

 ion  position               nearest neighbor table
   1  0.000  0.000  0.000-   2 2.73   3 2.73   4 2.73   3 2.73   4 2.73   2 2.73   4 2.73   4 2.73
                             2 2.73   3 2.73   3 2.73   2 2.73
   2  0.500  0.500  0.000-   1 2.73   3 2.73   4 2.73   3 2.73   4 2.73   1 2.73   3 2.73   3 2.73
                             1 2.73   4 2.73   4 2.73   1 2.73
   3  0.500  0.000  0.500-   1 2.73   2 2.73   4 2.73   1 2.73   2 2.73   2 2.73   4 2.73   2 2.73
                             1 2.73   4 2.73   1 2.73   4 2.73
   4  0.000  0.500  0.500-   1 2.73   2 2.73   3 2.73   1 2.73   2 2.73   1 2.73   3 2.73   1 2.73
                             2 2.73   3 2.73   2 2.73   3 2.73

  LATTYP: Found a simple cubic cell.
 ALAT       =     3.8550336787

  Lattice vectors:

 A1 = (   3.8550336787,   0.0000000000,   0.0000000000)
 A2 = (   0.0000000000,   3.8550336787,   0.0000000000)
 A3 = (   0.0000000000,   0.0000000000,   3.8550336787)
 Subroutine PRICEL returns following result:

  LATTYP: Found a face centered cubic cell.
 ALAT       =     3.8550336787

  Lattice vectors:

 A1 = (   1.9275168393,   1.9275168393,  -0.0000000000)
 A2 = (   1.9275168393,   0.0000000000,  -1.9275168393)
 A3 = (   0.0000000000,   1.9275168393,  -1.9275168393)

   4 primitive cells build up your supercell.

Analysis of symmetry for initial positions (statically):

 Routine SETGRP: Setting up the symmetry group for a
 simple cubic supercell.

 Subroutine GETGRP returns: Found 48 space group operations
 (whereof 48 operations were pure point group operations)
 out of a pool of 48 trial point group operations.

The static configuration has the point symmetry O_h .

Analysis of symmetry for dynamics (positions and initial velocities):

 Subroutine DYNSYM returns: Found 48 space group operations
 (whereof 48 operations were pure point group operations)
 out of a pool of 48 trial space group operations
 (whereof 48 operations were pure point group operations)
 and found also     4 'primitive' translations

The dynamic configuration has the point symmetry O_h .

 KPOINTS: Automatic mesh

Automatic generation of k-mesh.

 Subroutine IBZKPT returns following result:

 Found    455 irreducible k-points:

 Following reciprocal coordinates:
            Coordinates               Weight
  0.000000  0.000000  0.000000      1.000000
  0.041667  0.000000  0.000000      6.000000
  0.083333  0.000000  0.000000      6.000000
  0.125000  0.000000  0.000000      6.000000
  0.166667  0.000000  0.000000      6.000000
  0.208333  0.000000  0.000000      6.000000
  0.250000  0.000000  0.000000      6.000000
  0.291667  0.000000  0.000000      6.000000
  0.333333  0.000000  0.000000      6.000000
  0.375000  0.000000  0.000000      6.000000
  0.416667  0.000000  0.000000      6.000000
  0.458333  0.000000  0.000000      6.000000
  0.500000  0.000000  0.000000      3.000000
  0.041667  0.041667  0.000000     12.000000
  0.083333  0.041667  0.000000     24.000000
  0.125000  0.041667  0.000000     24.000000
  0.166667  0.041667  0.000000     24.000000
  0.208333  0.041667  0.000000     24.000000
  0.250000  0.041667  0.000000     24.000000
  0.291667  0.041667  0.000000     24.000000
  0.333333  0.041667  0.000000     24.000000
  0.375000  0.041667  0.000000     24.000000
  0.416667  0.041667  0.000000     24.000000
  0.458333  0.041667  0.000000     24.000000
  0.500000  0.041667  0.000000     12.000000
  0.083333  0.083333  0.000000     12.000000
  0.125000  0.083333  0.000000     24.000000
  0.166667  0.083333  0.000000     24.000000
  0.208333  0.083333  0.000000     24.000000
  0.250000  0.083333  0.000000     24.000000
  0.291667  0.083333  0.000000     24.000000
  0.333333  0.083333  0.000000     24.000000
  0.375000  0.083333  0.000000     24.000000
  0.416667  0.083333  0.000000     24.000000
  0.458333  0.083333  0.000000     24.000000
  0.500000  0.083333  0.000000     12.000000
  0.125000  0.125000  0.000000     12.000000
  0.166667  0.125000  0.000000     24.000000
  0.208333  0.125000  0.000000     24.000000
  0.250000  0.125000  0.000000     24.000000
  0.291667  0.125000  0.000000     24.000000
  0.333333  0.125000  0.000000     24.000000
  0.375000  0.125000  0.000000     24.000000
  0.416667  0.125000  0.000000     24.000000
  0.458333  0.125000  0.000000     24.000000
  0.500000  0.125000  0.000000     12.000000
  0.166667  0.166667  0.000000     12.000000
  0.208333  0.166667  0.000000     24.000000
  0.250000  0.166667  0.000000     24.000000
  0.291667  0.166667  0.000000     24.000000
  0.333333  0.166667  0.000000     24.000000
  0.375000  0.166667  0.000000     24.000000
  0.416667  0.166667  0.000000     24.000000
  0.458333  0.166667  0.000000     24.000000
  0.500000  0.166667  0.000000     12.000000
  0.208333  0.208333  0.000000     12.000000
  0.250000  0.208333  0.000000     24.000000
  0.291667  0.208333  0.000000     24.000000
  0.333333  0.208333  0.000000     24.000000
  0.375000  0.208333  0.000000     24.000000
[...]
  0.458333  0.416667  0.375000     48.000000
  0.500000  0.416667  0.375000     24.000000
  0.458333  0.458333  0.375000     24.000000
  0.500000  0.458333  0.375000     24.000000
  0.500000  0.500000  0.375000      6.000000
  0.416667  0.416667  0.416667      8.000000
  0.458333  0.416667  0.416667     24.000000
  0.500000  0.416667  0.416667     12.000000
  0.458333  0.458333  0.416667     24.000000
  0.500000  0.458333  0.416667     24.000000
  0.500000  0.500000  0.416667      6.000000
  0.458333  0.458333  0.458333      8.000000
  0.500000  0.458333  0.458333     12.000000
  0.500000  0.500000  0.458333      6.000000
  0.500000  0.500000  0.500000      1.000000

 Following cartesian coordinates:
            Coordinates               Weight
  0.000000  0.000000  0.000000      1.000000
  0.011457  0.000000  0.000000      6.000000
  0.022914  0.000000  0.000000      6.000000
  0.034371  0.000000  0.000000      6.000000
  0.045828  0.000000  0.000000      6.000000
  0.057284  0.000000  0.000000      6.000000
  0.068741  0.000000  0.000000      6.000000
  0.080198  0.000000  0.000000      6.000000
  0.091655  0.000000  0.000000      6.000000
  0.103112  0.000000  0.000000      6.000000
  0.114569  0.000000  0.000000      6.000000
  0.126026  0.000000  0.000000      6.000000
  0.137483  0.000000  0.000000      3.000000
  0.011457  0.011457  0.000000     12.000000
  0.022914  0.011457  0.000000     24.000000
  0.034371  0.011457  0.000000     24.000000
  0.045828  0.011457  0.000000     24.000000
  0.057284  0.011457  0.000000     24.000000
  0.068741  0.011457  0.000000     24.000000
  0.080198  0.011457  0.000000     24.000000
  0.091655  0.011457  0.000000     24.000000
  0.103112  0.011457  0.000000     24.000000
  0.114569  0.011457  0.000000     24.000000
  0.126026  0.011457  0.000000     24.000000
  0.137483  0.011457  0.000000     12.000000
  0.022914  0.022914  0.000000     12.000000
  0.034371  0.022914  0.000000     24.000000
  0.045828  0.022914  0.000000     24.000000
  0.057284  0.022914  0.000000     24.000000
  0.068741  0.022914  0.000000     24.000000
  0.080198  0.022914  0.000000     24.000000
  0.091655  0.022914  0.000000     24.000000
  0.103112  0.022914  0.000000     24.000000
  0.114569  0.022914  0.000000     24.000000
  0.126026  0.022914  0.000000     24.000000
  0.137483  0.022914  0.000000     12.000000
  0.034371  0.034371  0.000000     12.000000
  0.045828  0.034371  0.000000     24.000000
  0.057284  0.034371  0.000000     24.000000
  0.068741  0.034371  0.000000     24.000000
  0.080198  0.034371  0.000000     24.000000
  0.091655  0.034371  0.000000     24.000000
  0.103112  0.034371  0.000000     24.000000
  0.114569  0.034371  0.000000     24.000000
  0.126026  0.034371  0.000000     24.000000
  0.137483  0.034371  0.000000     12.000000
  0.045828  0.045828  0.000000     12.000000
  0.057284  0.045828  0.000000     24.000000
  0.068741  0.045828  0.000000     24.000000
  0.080198  0.045828  0.000000     24.000000
  0.091655  0.045828  0.000000     24.000000
  0.103112  0.045828  0.000000     24.000000
  0.114569  0.045828  0.000000     24.000000
  0.126026  0.045828  0.000000     24.000000
  0.137483  0.045828  0.000000     12.000000
  0.057284  0.057284  0.000000     12.000000
  0.068741  0.057284  0.000000     24.000000
  0.080198  0.057284  0.000000     24.000000
  0.091655  0.057284  0.000000     24.000000
  0.103112  0.057284  0.000000     24.000000
[...]
  0.126026  0.114569  0.103112     48.000000
  0.137483  0.114569  0.103112     24.000000
  0.126026  0.126026  0.103112     24.000000
  0.137483  0.126026  0.103112     24.000000
  0.137483  0.137483  0.103112      6.000000
  0.114569  0.114569  0.114569      8.000000
  0.126026  0.114569  0.114569     24.000000
  0.137483  0.114569  0.114569     12.000000
  0.126026  0.126026  0.114569     24.000000
  0.137483  0.126026  0.114569     24.000000
  0.137483  0.137483  0.114569      6.000000
  0.126026  0.126026  0.126026      8.000000
  0.137483  0.126026  0.126026     12.000000
  0.137483  0.137483  0.126026      6.000000
  0.137483  0.137483  0.137483      1.000000

 I would recommend the setting:
   dimension x,y,z NGX =    36 NGY =   36 NGZ =   36
 SYSTEM =  unknown system
 POSCAR =  Cu

 Startparameter for this run:
   NWRITE =      2    write-flag & timer
   PREC   = accura    medium, high low
   ISTART =      0    job   : 0-new  1-cont  2-samecut
   ICHARG =      2    charge: 1-file 2-atom 10-const
   ISPIN  =      1    spin polarized calculation?
   LNONCOLLINEAR =      F non collinear calculations
   LSORBIT =      F    spin-orbit coupling
   INIWAV =      1    electr: 0-lowe 1-rand  2-diag
   LASPH  =      F    aspherical Exc in radial PAW
   METAGGA=      F    non-selfconsistent MetaGGA calc.

 Electronic Relaxation 1
   ENCUT  =  800.0 eV  58.80 Ry    7.67 a.u.   8.89  8.89  8.89*2*pi/ulx,y,z
   ENINI  =  800.0     initial cutoff
   ENAUG  =  516.5 eV  augmentation charge cutoff
   NELM   =     60;   NELMIN=  2; NELMDL=  0     # of ELM steps
   EDIFF  = 0.1E-07   stopping-criterion for ELM
   LREAL  =      F    real-space projection
   LCOMPAT=      F    compatible to vasp.4.4
   LREAL_COMPAT= F    compatible to vasp.4.5.1-3
   GGA_COMPAT  = T    GGA compatible to vasp.4.4-vasp.4.6
   LMAXPAW     = -100 max onsite density
   LMAXMIX     =    2 max onsite mixed and CHGCAR
[...]
 k-point 21 :  0.33330.04170.0000  plane waves:   2932
 k-point 22 :  0.37500.04170.0000  plane waves:   2920
 k-point 23 :  0.41670.04170.0000  plane waves:   2925
 k-point 24 :  0.45830.04170.0000  plane waves:   2918
 k-point 25 :  0.50000.04170.0000  plane waves:   2920
 k-point 26 :  0.08330.08330.0000  plane waves:   2945
 k-point 27 :  0.12500.08330.0000  plane waves:   2943
 k-point 28 :  0.16670.08330.0000  plane waves:   2942
 k-point 29 :  0.20830.08330.0000  plane waves:   2941
 k-point 30 :  0.25000.08330.0000  plane waves:   2943
 k-point 31 :  0.29170.08330.0000  plane waves:   2943
 k-point 32 :  0.33330.08330.0000  plane waves:   2932
 k-point 33 :  0.37500.08330.0000  plane waves:   2926
 k-point 34 :  0.41670.08330.0000  plane waves:   2927
 k-point 35 :  0.45830.08330.0000  plane waves:   2927
 k-point 36 :  0.50000.08330.0000  plane waves:   2918
 k-point 37 :  0.12500.12500.0000  plane waves:   2943
 k-point 38 :  0.16670.12500.0000  plane waves:   2937
 k-point 39 :  0.20830.12500.0000  plane waves:   2942
 k-point 40 :  0.25000.12500.0000  plane waves:   2952
 k-point 41 :  0.29170.12500.0000  plane waves:   2943
 k-point 42 :  0.33330.12500.0000  plane waves:   2933
 k-point 43 :  0.37500.12500.0000  plane waves:   2927
 k-point 44 :  0.41670.12500.0000  plane waves:   2933
 k-point 45 :  0.45830.12500.0000  plane waves:   2931
 k-point 46 :  0.50000.12500.0000  plane waves:   2936
 k-point 47 :  0.16670.16670.0000  plane waves:   2939
 k-point 48 :  0.20830.16670.0000  plane waves:   2945
 k-point 49 :  0.25000.16670.0000  plane waves:   2946
 k-point 50 :  0.29170.16670.0000  plane waves:   2944
 k-point 51 :  0.33330.16670.0000  plane waves:   2933
 k-point 52 :  0.37500.16670.0000  plane waves:   2939
 k-point 53 :  0.41670.16670.0000  plane waves:   2945
 k-point 54 :  0.45830.16670.0000  plane waves:   2936
 k-point 55 :  0.50000.16670.0000  plane waves:   2932
 k-point 56 :  0.20830.20830.0000  plane waves:   2945
 k-point 57 :  0.25000.20830.0000  plane waves:   2949
 k-point 58 :  0.29170.20830.0000  plane waves:   2947
 k-point 59 :  0.33330.20830.0000  plane waves:   2943
 k-point 60 :  0.37500.20830.0000  plane waves:   2948
[...]
 k-point 85 :  0.50000.37500.0000  plane waves:   2948
 k-point 86 :  0.41670.41670.0000  plane waves:   2948
 k-point 87 :  0.45830.41670.0000  plane waves:   2947
 k-point 88 :  0.50000.41670.0000  plane waves:   2950
 k-point 89 :  0.45830.45830.0000  plane waves:   2958
 k-point 90 :  0.50000.45830.0000  plane waves:   2958
 k-point 91 :  0.50000.50000.0000  plane waves:   2968
 k-point 92 :  0.04170.04170.0417  plane waves:   2945
 k-point 93 :  0.08330.04170.0417  plane waves:   2943
 k-point 94 :  0.12500.04170.0417  plane waves:   2939
 k-point 95 :  0.16670.04170.0417  plane waves:   2945
 k-point 96 :  0.20830.04170.0417  plane waves:   2940
 k-point 97 :  0.25000.04170.0417  plane waves:   2941
 k-point 98 :  0.29170.04170.0417  plane waves:   2933
 k-point 99 :  0.33330.04170.0417  plane waves:   2926
 k-point ** :  0.37500.04170.0417  plane waves:   2926
 k-point ** :  0.41670.04170.0417  plane waves:   2929
 k-point ** :  0.45830.04170.0417  plane waves:   2913
 k-point ** :  0.50000.04170.0417  plane waves:   2920
 k-point ** :  0.08330.08330.0417  plane waves:   2942
 k-point ** :  0.12500.08330.0417  plane waves:   2943
 k-point ** :  0.16670.08330.0417  plane waves:   2945
 k-point ** :  0.20830.08330.0417  plane waves:   2937
 k-point ** :  0.25000.08330.0417  plane waves:   2943
 k-point ** :  0.29170.08330.0417  plane waves:   2938
 k-point ** :  0.33330.08330.0417  plane waves:   2935
 k-point ** :  0.37500.08330.0417  plane waves:   2931
 k-point ** :  0.41670.08330.0417  plane waves:   2928
 k-point ** :  0.45830.08330.0417  plane waves:   2926
 k-point ** :  0.50000.08330.0417  plane waves:   2928
 k-point ** :  0.12500.12500.0417  plane waves:   2941
 k-point ** :  0.16670.12500.0417  plane waves:   2936
 k-point ** :  0.20830.12500.0417  plane waves:   2945
 k-point ** :  0.25000.12500.0417  plane waves:   2945
 k-point ** :  0.29170.12500.0417  plane waves:   2944
 k-point ** :  0.33330.12500.0417  plane waves:   2939
 k-point ** :  0.37500.12500.0417  plane waves:   2934
 k-point ** :  0.41670.12500.0417  plane waves:   2938
 k-point ** :  0.45830.12500.0417  plane waves:   2929
 k-point ** :  0.50000.12500.0417  plane waves:   2930
 k-point ** :  0.16670.16670.0417  plane waves:   2943
 k-point ** :  0.20830.16670.0417  plane waves:   2942
 k-point ** :  0.25000.16670.0417  plane waves:   2952
 k-point ** :  0.29170.16670.0417  plane waves:   2946
 k-point ** :  0.33330.16670.0417  plane waves:   2939
 k-point ** :  0.37500.16670.0417  plane waves:   2939
 k-point ** :  0.41670.16670.0417  plane waves:   2937
 k-point ** :  0.45830.16670.0417  plane waves:   2932
 k-point ** :  0.50000.16670.0417  plane waves:   2932
 k-point ** :  0.20830.20830.0417  plane waves:   2949
 k-point ** :  0.25000.20830.0417  plane waves:   2951
 k-point ** :  0.29170.20830.0417  plane waves:   2941
 k-point ** :  0.33330.20830.0417  plane waves:   2940
 k-point ** :  0.37500.20830.0417  plane waves:   2942
 k-point ** :  0.41670.20830.0417  plane waves:   2935
 k-point ** :  0.45830.20830.0417  plane waves:   2939
 k-point ** :  0.50000.20830.0417  plane waves:   2938
 k-point ** :  0.25000.25000.0417  plane waves:   2942
 k-point ** :  0.29170.25000.0417  plane waves:   2941
 k-point ** :  0.33330.25000.0417  plane waves:   2944
 k-point ** :  0.37500.25000.0417  plane waves:   2944
 k-point ** :  0.41670.25000.0417  plane waves:   2938
 k-point ** :  0.45830.25000.0417  plane waves:   2944
 k-point ** :  0.50000.25000.0417  plane waves:   2938
 k-point ** :  0.29170.29170.0417  plane waves:   2945
 k-point ** :  0.33330.29170.0417  plane waves:   2945
 k-point ** :  0.37500.29170.0417  plane waves:   2943
 k-point ** :  0.41670.29170.0417  plane waves:   2943
 k-point ** :  0.45830.29170.0417  plane waves:   2943
 k-point ** :  0.50000.29170.0417  plane waves:   2944
 k-point ** :  0.33330.33330.0417  plane waves:   2946
 k-point ** :  0.37500.33330.0417  plane waves:   2948
 k-point ** :  0.41670.33330.0417  plane waves:   2943
 k-point ** :  0.45830.33330.0417  plane waves:   2945
 k-point ** :  0.50000.33330.0417  plane waves:   2950
[...]
 k-point ** :  0.45830.41670.3750  plane waves:   2966
 k-point ** :  0.50000.41670.3750  plane waves:   2960
 k-point ** :  0.45830.45830.3750  plane waves:   2963
 k-point ** :  0.50000.45830.3750  plane waves:   2970
 k-point ** :  0.50000.50000.3750  plane waves:   2964
 k-point ** :  0.41670.41670.4167  plane waves:   2968
 k-point ** :  0.45830.41670.4167  plane waves:   2964
 k-point ** :  0.50000.41670.4167  plane waves:   2958
 k-point ** :  0.45830.45830.4167  plane waves:   2959
 k-point ** :  0.50000.45830.4167  plane waves:   2954
 k-point ** :  0.50000.50000.4167  plane waves:   2960
 k-point ** :  0.45830.45830.4583  plane waves:   2956
 k-point ** :  0.50000.45830.4583  plane waves:   2968
 k-point ** :  0.50000.50000.4583  plane waves:   2976
 k-point ** :  0.50000.50000.5000  plane waves:   3016

 maximum and minimum number of plane-waves per node :   3016  2906

 maximum number of plane-waves:   3016
 maximal index in each direction:
   IXMAX=  8   IYMAX=  8   IZMAX=  8
   IXMIN= -9   IYMIN= -9   IZMIN= -9

 NGX is ok and might be reduce to  36
 NGY is ok and might be reduce to  36
 NGZ is ok and might be reduce to  36

 parallel 3dFFT wavefunction:
    minimum data exchange during FFTs selected (reduces bandwidth)
 parallel 3dFFT charge:
    minimum data exchange during FFTs selected (reduces bandwidth)

Broyden mixing: mesh for mixing (old mesh)
   NGX = 17   NGY = 17   NGZ = 17
  (NGX  = 72   NGY  = 72   NGZ  = 72)
 gives a total of   4913 points
 initial charge density was supplied:
 charge density of overlapping atoms calculated
 number of electron   44.0000000 magnetization
 keeping initial charge density in first step

 Maximum index for augmentation-charges        27765 (set IRDMAX)

 First call to EWALD:  gamma=   0.460
 Maximum number of real-space cells 3x 3x 3
 Maximum number of reciprocal cells 3x 3x 3

----------------------------------------- Iteration    1(   1)  ---------------------------------------

 eigenvalue-minimisations  : 29536
 total energy-change (2. order) : 0.3282297E+03  (-0.2702027E+04)
 number of electron   44.0000000 magnetization
 augmentation part    44.0000000 magnetization

 Free energy of the ion-electron system (eV)
  alpha Z        PSCENC =       356.81151756
  Ewald energy   TEWEN  =     -4144.47517478
  -1/2 Hartree   DENC   =     -1454.73898010
  -V(xc)+E(xc)   XCENC  =       173.65320424
  PAW double counting   =      4328.20916945    -4904.30802700
  entropy T*S    EENTRO =        -0.00015941
  eigenvalues    EBANDS =       409.16060458
  atomic energy  EATOM  =      5563.91759264
  free energy    TOTEN  =       328.22974717 eV

  energy without entropy =      328.22990658  energy(sigma->0) =      328.22982688

[...]

 eigenvalue-minimisations  : 29184
 total energy-change (2. order) :-0.3221375E+03  (-0.3070484E+03)
 number of electron   44.0000000 magnetization
 augmentation part    44.0000000 magnetization

[...]

 Broyden mixing:
  rms(total) = 0.13256E+01    rms(broyden)= 0.13256E+01
  rms(prec ) = 0.31127E+01
  weight for this iteration     100.00

[...]

 eigenvalues of (default mixing * dielectric matrix)
  average eigenvalue GAMMA=   0.6285
  0.6285

[...]

 eigenvalue-minimisations  : 33480
 total energy-change (2. order) :-0.9909490E-06  (-0.2764796E-07)
 number of electron   44.0000001 magnetization
 augmentation part    28.9335328 magnetization

 Broyden mixing:
  rms(total) = 0.49925E-04    rms(broyden)= 0.49925E-04
  rms(prec ) = 0.12167E-03
  weight for this iteration     100.00

 eigenvalues of (default mixing * dielectric matrix)
  average eigenvalue GAMMA=   1.5663
  2.7795  2.5524  2.5524  0.6534  0.9058  1.0623  1.0623  0.9624

[...]

----------------------------------------- Iteration    1(  14)  ---------------------------------------

 eigenvalue-minimisations  : 20048
 total energy-change (2. order) : 0.9572432E-08  (-0.1317785E-08)
 number of electron   44.0000001 magnetization
 augmentation part    28.9335328 magnetization

 Free energy of the ion-electron system (eV)
  alpha Z        PSCENC =       356.81151756
  Ewald energy   TEWEN  =     -4144.47517478
  -1/2 Hartree   DENC   =     -1373.63659119
  -V(xc)+E(xc)   XCENC  =       169.80215669
  PAW double counting   =      4303.51874071    -4879.91730863
  entropy T*S    EENTRO =        -0.00013509
  eigenvalues    EBANDS =       -10.36605751
  atomic energy  EATOM  =      5563.91759264
  free energy    TOTEN  =       -14.34525961 eV

  energy without entropy =      -14.34512451  energy(sigma->0) =      -14.34519206

 average (electrostatic) potential at core
  the test charge radii are     1.0053
  (the norm of the test charge is              1.0000)
       1 -41.0260       2 -41.0260       3 -41.0260       4 -41.0260

 E-fermi :   2.2861     XC(G=0): -11.7100     alpha+bet : -7.9414
   add alpha+bet to get absolut eigen values

 k-point   1 :       0.0000    0.0000    0.0000
  band No.  band energies     occupation
      1      -5.6813      2.00000
      2      -1.5925      2.00000
      3      -1.5925      2.00000
      4      -1.5925      2.00000
      5      -1.2517      2.00000
      6      -1.2517      2.00000
      7      -1.2517      2.00000
      8      -0.2248      2.00000
      9      -0.2248      2.00000
     10      -0.2248      2.00000
     11       0.3881      2.00000
     12       0.3881      2.00000
     13       0.7969      2.00000
     14       0.7969      2.00000
     15       0.7969      2.00000
     16       0.9111      2.00000
     17       0.9111      2.00000
     18       0.9111      2.00000
     19       0.9111      2.00000
     20       0.9111      2.00000
     21       0.9111      2.00000
     22       3.9468      0.00000
     23       3.9468      0.00000
     24       3.9468      0.00000
     25       8.1579      0.00000
     26       8.1579      0.00000
     27       8.1579      0.00000
     28      14.0175      0.00000
     29      14.0175      0.00000
     30      14.0175      0.00000
     31      14.0175      0.00000
     32      14.0175      0.00000

[...]

 k-point 455 :       0.5000    0.5000    0.5000
  band No.  band energies     occupation
      1      -1.8220      2.00000
      2      -1.8220      2.00000
      3      -1.8220      2.00000
      4      -1.8220      2.00000
      5      -0.2423      2.00000
      6      -0.2423      2.00000
      7      -0.2423      2.00000
      8      -0.2423      2.00000
      9      -0.2423      2.00000
     10      -0.2423      2.00000
     11      -0.2423      2.00000
     12      -0.2423      2.00000
     13       0.8077      2.00000
     14       0.8077      2.00000
     15       0.8077      2.00000
     16       0.8077      2.00000
     17       0.8077      2.00000
     18       0.8077      2.00000
     19       0.8077      2.00000
     20       0.8077      2.00000
     21       1.8283      2.00000
     22       1.8283      2.00000
     23       1.8283      2.00000
     24       1.8283      2.00000
     25       5.1767      0.00000
     26       5.1767      0.00000
     27       5.1767      0.00000
     28       5.1767      0.00000
     29      21.6183      0.00000
     30      21.6183      0.00000
     31      21.6183      0.00000
     32      21.6183      0.00000

 soft charge-density along one line, spin component           1
         0         1         2         3         4         5         6         7         8         9
 total charge-density along one line

------------------------ aborting loop because EDIFF is reached ----------------------------------------

  FREE ENERGIE OF THE ION-ELECTRON SYSTEM (eV)
  free  energy   TOTEN  =       -14.345260 eV

  energy  without entropy=      -14.345125  energy(sigma->0) =      -14.345192

  FORCE on cell =-STRESS in cart. coord.  units (eV/reduce length):
  Direction    X        Y        Z        XY       YZ       ZX
  Alpha Z    356.81    356.81    356.81
  Ewald    -1381.49  -1381.49  -1381.49      0.00      0.00     -0.00
  Hartree    457.88    457.88    457.88     -0.00     -0.00     -0.00
  E(xc)     -249.41   -249.41   -249.41     -0.00      0.00      0.00
  Local      428.29    428.29    428.29      0.00      0.00      0.00
  n-local   -148.81   -154.38   -155.36      0.34      1.85      0.66
  augment    224.90    224.90    224.90     -0.00     -0.00     -0.00
  Kinetic    317.68    309.39    304.08     -2.75      0.32     -1.19
  Total       -5.49     -5.49     -5.49     -0.00      0.00     -0.00
  in kB     -153.64   -153.64   -153.64     -0.00      0.00     -0.00

 VOLUME and BASIS-vectors are now :
  energy-cutoff  :      800.00
  volume of cell :       57.29
      direct lattice vectors                 reciprocal lattice vectors
     3.855033679  0.000000000  0.000000000     0.259401106  0.000000000  0.000000000
     0.000000000  3.855033679  0.000000000     0.000000000  0.259401106  0.000000000
     0.000000000  0.000000000  3.855033679     0.000000000  0.000000000  0.259401106

  length of vectors
     3.855033679  3.855033679  3.855033679     0.259401106  0.259401106  0.259401106

 FORCES acting on ions
    electron-ion (+dipol)            ewald-force                    non-local-force                 convergence-correction
   -.354E-13 -.516E-13 -.108E-12   0.104E-15 -.131E-13 -.660E-14   -.258E-25 0.258E-25 -.323E-25   -.864E-13 -.615E-13 0.109E-13
   0.570E-12 0.374E-11 0.224E-11   0.234E-13 -.984E-14 -.650E-14   0.258E-25 0.129E-24 -.110E-24   0.410E-13 -.732E-14 -.100E-13
   0.570E-12 -.551E-13 0.778E-11   -.122E-13 0.111E-13 0.728E-14   -.258E-25 0.355E-25 0.000E+00   0.454E-13 -.374E-13 0.177E-13
   -.348E-13 0.554E-12 0.494E-12   -.875E-14 0.144E-13 0.738E-14   -.100E-24 0.517E-25 -.775E-25   -.879E-13 0.580E-14 0.166E-13
   0.107E-11 0.419E-11 0.104E-10   0.251E-14 0.257E-14 0.156E-14   -.126E-24 0.242E-24 -.220E-24   -.879E-13 -.100E-12 0.351E-13

 POSITION                                       TOTAL-FORCE (eV/Angst)
      0.00000      0.00000      0.00000         0.000000      0.000000     -0.000000
      1.92752      1.92752      0.00000         0.000000      0.000000     -0.000000
      1.92752      0.00000      1.92752         0.000000      0.000000      0.000000
      0.00000      1.92752      1.92752         0.000000      0.000000      0.000000
    total drift:                                0.000000      0.000000      0.000000

 mean value of Nose-termostat <S>:     1.000 mean value of <T> :     0.000
 mean temperature <T/S>/<1/S>  :     0.000