 vasp.4.6.28 25Jul05 complex
 executed on             LinuxIFC date 2017.01.14  06:44:26

 INCAR:
 POTCAR:   PAW_PBE Ag 06Sep2000
 POTCAR:   PAW_PBE Ag 06Sep2000
   VRHFIN =Ag : s1 d10

   TITEL  = PAW_PBE Ag 06Sep2000
   POMASS =  107.868; ZVAL   =   11.000    mass and valenz
   ENMAX  =  249.846; ENMIN  =  187.385 eV
   QCUT   =   -4.285; QGAM   =    8.570    optimization parameters

   Description
     l     E      TYP  RCUT    TYP  RCUT
     2   .000     23  2.400
     2   .000     23  2.400
     0   .000     23  2.400
     0   .000     23  2.400
     1  -.200     23  2.400
     1  1.500     23  2.400
     3   .000      7   .000

 WARNING: PSMAXN for non-local potential too small
          PSMAXN should be >   16.2007969712021       NTYP=           1
 PAW_PBE Ag 06Sep2000                   :

 POSCAR: Ag
  positions in direct lattice
  velocities in cartesian coordinates

 ion  position               nearest neighbor table
   1  0.000  0.000  0.000-   2 2.89   3 2.89   4 2.89   3 2.89   4 2.89   2 2.89   4 2.89   4 2.89
                             2 2.89   3 2.89   3 2.89   2 2.89
   2  0.500  0.500  0.000-   1 2.89   3 2.89   4 2.89   3 2.89   4 2.89   1 2.89   3 2.89   3 2.89
                             1 2.89   4 2.89   4 2.89   1 2.89
   3  0.500  0.000  0.500-   1 2.89   2 2.89   4 2.89   1 2.89   2 2.89   2 2.89   4 2.89   2 2.89
                             1 2.89   4 2.89   1 2.89   4 2.89
   4  0.000  0.500  0.500-   1 2.89   2 2.89   3 2.89   1 2.89   2 2.89   1 2.89   3 2.89   1 2.89
                             2 2.89   3 2.89   2 2.89   3 2.89

  LATTYP: Found a simple cubic cell.
 ALAT       =     4.0804937437

  Lattice vectors:

 A1 = (   4.0804937437,   0.0000000000,   0.0000000000)
 A2 = (   0.0000000000,   4.0804937437,   0.0000000000)
 A3 = (   0.0000000000,   0.0000000000,   4.0804937437)
 Subroutine PRICEL returns following result:

  LATTYP: Found a face centered cubic cell.
 ALAT       =     4.0804937437

  Lattice vectors:

 A1 = (   2.0402468719,   2.0402468719,   0.0000000000)
 A2 = (   2.0402468719,   0.0000000000,  -2.0402468719)
 A3 = (   0.0000000000,   2.0402468719,  -2.0402468719)

   4 primitive cells build up your supercell.

Analysis of symmetry for initial positions (statically):

 Routine SETGRP: Setting up the symmetry group for a
 simple cubic supercell.

 Subroutine GETGRP returns: Found 48 space group operations
 (whereof 48 operations were pure point group operations)
 out of a pool of 48 trial point group operations.

The static configuration has the point symmetry O_h .

Analysis of symmetry for dynamics (positions and initial velocities):

 Subroutine DYNSYM returns: Found 48 space group operations
 (whereof 48 operations were pure point group operations)
 out of a pool of 48 trial space group operations
 (whereof 48 operations were pure point group operations)
 and found also     4 'primitive' translations

The dynamic configuration has the point symmetry O_h .

 KPOINTS: Automatic mesh

Automatic generation of k-mesh.

 Subroutine IBZKPT returns following result:

 Found   1330 irreducible k-points:

 Following reciprocal coordinates:
            Coordinates               Weight
  0.000000  0.000000  0.000000      1.000000
  0.027778  0.000000  0.000000      6.000000
  0.055556  0.000000  0.000000      6.000000
  0.083333  0.000000  0.000000      6.000000
  0.111111  0.000000  0.000000      6.000000
  0.138889  0.000000  0.000000      6.000000
  0.166667  0.000000  0.000000      6.000000
  0.194444  0.000000  0.000000      6.000000
  0.222222  0.000000  0.000000      6.000000
  0.250000  0.000000  0.000000      6.000000
  0.277778  0.000000  0.000000      6.000000
  0.305556  0.000000  0.000000      6.000000
  0.333333  0.000000  0.000000      6.000000
  0.361111  0.000000  0.000000      6.000000
  0.388889  0.000000  0.000000      6.000000
  0.416667  0.000000  0.000000      6.000000
  0.444444  0.000000  0.000000      6.000000
  0.472222  0.000000  0.000000      6.000000
  0.500000  0.000000  0.000000      3.000000
  0.027778  0.027778  0.000000     12.000000
  0.055556  0.027778  0.000000     24.000000
  0.083333  0.027778  0.000000     24.000000
  0.111111  0.027778  0.000000     24.000000
  0.138889  0.027778  0.000000     24.000000
  0.166667  0.027778  0.000000     24.000000
  0.194444  0.027778  0.000000     24.000000
  0.222222  0.027778  0.000000     24.000000
  0.250000  0.027778  0.000000     24.000000
  0.277778  0.027778  0.000000     24.000000
  0.305556  0.027778  0.000000     24.000000
  0.333333  0.027778  0.000000     24.000000
  0.361111  0.027778  0.000000     24.000000
  0.388889  0.027778  0.000000     24.000000
  0.416667  0.027778  0.000000     24.000000
  0.444444  0.027778  0.000000     24.000000
  0.472222  0.027778  0.000000     24.000000
  0.500000  0.027778  0.000000     12.000000
  0.055556  0.055556  0.000000     12.000000
  0.083333  0.055556  0.000000     24.000000
  0.111111  0.055556  0.000000     24.000000
  0.138889  0.055556  0.000000     24.000000
  0.166667  0.055556  0.000000     24.000000
  0.194444  0.055556  0.000000     24.000000
  0.222222  0.055556  0.000000     24.000000
  0.250000  0.055556  0.000000     24.000000
  0.277778  0.055556  0.000000     24.000000
  0.305556  0.055556  0.000000     24.000000
  0.333333  0.055556  0.000000     24.000000
  0.361111  0.055556  0.000000     24.000000
  0.388889  0.055556  0.000000     24.000000
  0.416667  0.055556  0.000000     24.000000
  0.444444  0.055556  0.000000     24.000000
  0.472222  0.055556  0.000000     24.000000
  0.500000  0.055556  0.000000     12.000000
  0.083333  0.083333  0.000000     12.000000
  0.111111  0.083333  0.000000     24.000000
  0.138889  0.083333  0.000000     24.000000
  0.166667  0.083333  0.000000     24.000000
  0.194444  0.083333  0.000000     24.000000
  0.222222  0.083333  0.000000     24.000000
[...]
  0.472222  0.444444  0.416667     48.000000
  0.500000  0.444444  0.416667     24.000000
  0.472222  0.472222  0.416667     24.000000
  0.500000  0.472222  0.416667     24.000000
  0.500000  0.500000  0.416667      6.000000
  0.444444  0.444444  0.444444      8.000000
  0.472222  0.444444  0.444444     24.000000
  0.500000  0.444444  0.444444     12.000000
  0.472222  0.472222  0.444444     24.000000
  0.500000  0.472222  0.444444     24.000000
  0.500000  0.500000  0.444444      6.000000
  0.472222  0.472222  0.472222      8.000000
  0.500000  0.472222  0.472222     12.000000
  0.500000  0.500000  0.472222      6.000000
  0.500000  0.500000  0.500000      1.000000

 Following cartesian coordinates:
            Coordinates               Weight
  0.000000  0.000000  0.000000      1.000000
  0.006671  0.000000  0.000000      6.000000
  0.013343  0.000000  0.000000      6.000000
  0.020014  0.000000  0.000000      6.000000
  0.026685  0.000000  0.000000      6.000000
  0.033357  0.000000  0.000000      6.000000
  0.040028  0.000000  0.000000      6.000000
  0.046699  0.000000  0.000000      6.000000
  0.053370  0.000000  0.000000      6.000000
  0.060042  0.000000  0.000000      6.000000
  0.066713  0.000000  0.000000      6.000000
  0.073384  0.000000  0.000000      6.000000
  0.080056  0.000000  0.000000      6.000000
  0.086727  0.000000  0.000000      6.000000
  0.093398  0.000000  0.000000      6.000000
  0.100070  0.000000  0.000000      6.000000
  0.106741  0.000000  0.000000      6.000000
  0.113412  0.000000  0.000000      6.000000
  0.120084  0.000000  0.000000      3.000000
  0.006671  0.006671  0.000000     12.000000
  0.013343  0.006671  0.000000     24.000000
  0.020014  0.006671  0.000000     24.000000
  0.026685  0.006671  0.000000     24.000000
  0.033357  0.006671  0.000000     24.000000
  0.040028  0.006671  0.000000     24.000000
  0.046699  0.006671  0.000000     24.000000
  0.053370  0.006671  0.000000     24.000000
  0.060042  0.006671  0.000000     24.000000
  0.066713  0.006671  0.000000     24.000000
  0.073384  0.006671  0.000000     24.000000
  0.080056  0.006671  0.000000     24.000000
  0.086727  0.006671  0.000000     24.000000
  0.093398  0.006671  0.000000     24.000000
  0.100070  0.006671  0.000000     24.000000
  0.106741  0.006671  0.000000     24.000000
  0.113412  0.006671  0.000000     24.000000
  0.120084  0.006671  0.000000     12.000000
  0.013343  0.013343  0.000000     12.000000
  0.020014  0.013343  0.000000     24.000000
  0.026685  0.013343  0.000000     24.000000
  0.033357  0.013343  0.000000     24.000000
  0.040028  0.013343  0.000000     24.000000
  0.046699  0.013343  0.000000     24.000000
  0.053370  0.013343  0.000000     24.000000
  0.060042  0.013343  0.000000     24.000000
  0.066713  0.013343  0.000000     24.000000
  0.073384  0.013343  0.000000     24.000000
  0.080056  0.013343  0.000000     24.000000
  0.086727  0.013343  0.000000     24.000000
  0.093398  0.013343  0.000000     24.000000
  0.100070  0.013343  0.000000     24.000000
  0.106741  0.013343  0.000000     24.000000
  0.113412  0.013343  0.000000     24.000000
  0.120084  0.013343  0.000000     12.000000
  0.020014  0.020014  0.000000     12.000000
  0.026685  0.020014  0.000000     24.000000
  0.033357  0.020014  0.000000     24.000000
  0.040028  0.020014  0.000000     24.000000
  0.046699  0.020014  0.000000     24.000000
  0.053370  0.020014  0.000000     24.000000
[...]
  0.113412  0.106741  0.100070     48.000000
  0.120084  0.106741  0.100070     24.000000
  0.113412  0.113412  0.100070     24.000000
  0.120084  0.113412  0.100070     24.000000
  0.120084  0.120084  0.100070      6.000000
  0.106741  0.106741  0.106741      8.000000
  0.113412  0.106741  0.106741     24.000000
  0.120084  0.106741  0.106741     12.000000
  0.113412  0.113412  0.106741     24.000000
  0.120084  0.113412  0.106741     24.000000
  0.120084  0.120084  0.106741      6.000000
  0.113412  0.113412  0.113412      8.000000
  0.120084  0.113412  0.113412     12.000000
  0.120084  0.120084  0.113412      6.000000
  0.120084  0.120084  0.120084      1.000000

 I would recommend the setting:
   dimension x,y,z NGX =    42 NGY =   42 NGZ =   42
 SYSTEM =  unknown system
 POSCAR =  Ag

 Startparameter for this run:
   NWRITE =      2    write-flag & timer
   PREC   = accura    medium, high low
   ISTART =      0    job   : 0-new  1-cont  2-samecut
   ICHARG =      2    charge: 1-file 2-atom 10-const
   ISPIN  =      1    spin polarized calculation?
   LNONCOLLINEAR =      F non collinear calculations
   LSORBIT =      F    spin-orbit coupling
   INIWAV =      1    electr: 0-lowe 1-rand  2-diag
   LASPH  =      F    aspherical Exc in radial PAW
   METAGGA=      F    non-selfconsistent MetaGGA calc.

 Electronic Relaxation 1
   ENCUT  = 1000.0 eV  73.50 Ry    8.57 a.u.  10.52 10.52 10.52*2*pi/ulx,y,z
   ENINI  = 1000.0     initial cutoff
   ENAUG  =  412.5 eV  augmentation charge cutoff
   NELM   =     60;   NELMIN=  2; NELMDL=  0     # of ELM steps
   EDIFF  = 0.1E-07   stopping-criterion for ELM
   LREAL  =      F    real-space projection
   LCOMPAT=      F    compatible to vasp.4.4
   LREAL_COMPAT= F    compatible to vasp.4.5.1-3
   GGA_COMPAT  = T    GGA compatible to vasp.4.4-vasp.4.6
[...]
 k-point 26 :  0.19440.02780.0000  plane waves:   4879
 k-point 27 :  0.22220.02780.0000  plane waves:   4876
 k-point 28 :  0.25000.02780.0000  plane waves:   4877
 k-point 29 :  0.27780.02780.0000  plane waves:   4879
 k-point 30 :  0.30560.02780.0000  plane waves:   4872
 k-point 31 :  0.33330.02780.0000  plane waves:   4881
 k-point 32 :  0.36110.02780.0000  plane waves:   4880
 k-point 33 :  0.38890.02780.0000  plane waves:   4883
 k-point 34 :  0.41670.02780.0000  plane waves:   4890
 k-point 35 :  0.44440.02780.0000  plane waves:   4900
 k-point 36 :  0.47220.02780.0000  plane waves:   4905
 k-point 37 :  0.50000.02780.0000  plane waves:   4914
 k-point 38 :  0.05560.05560.0000  plane waves:   4901
 k-point 39 :  0.08330.05560.0000  plane waves:   4898
 k-point 40 :  0.11110.05560.0000  plane waves:   4890
 k-point 41 :  0.13890.05560.0000  plane waves:   4880
 k-point 42 :  0.16670.05560.0000  plane waves:   4884
 k-point 43 :  0.19440.05560.0000  plane waves:   4878
 k-point 44 :  0.22220.05560.0000  plane waves:   4881
 k-point 45 :  0.25000.05560.0000  plane waves:   4888
 k-point 46 :  0.27780.05560.0000  plane waves:   4884
 k-point 47 :  0.30560.05560.0000  plane waves:   4880
 k-point 48 :  0.33330.05560.0000  plane waves:   4884
 k-point 49 :  0.36110.05560.0000  plane waves:   4892
 k-point 50 :  0.38890.05560.0000  plane waves:   4888
 k-point 51 :  0.41670.05560.0000  plane waves:   4897
 k-point 52 :  0.44440.05560.0000  plane waves:   4896
 k-point 53 :  0.47220.05560.0000  plane waves:   4896
 k-point 54 :  0.50000.05560.0000  plane waves:   4904
 k-point 55 :  0.08330.08330.0000  plane waves:   4893
 k-point 56 :  0.11110.08330.0000  plane waves:   4888
 k-point 57 :  0.13890.08330.0000  plane waves:   4882
 k-point 58 :  0.16670.08330.0000  plane waves:   4876
 k-point 59 :  0.19440.08330.0000  plane waves:   4878
 k-point 60 :  0.22220.08330.0000  plane waves:   4884
[...]
 k-point 85 :  0.50000.11110.0000  plane waves:   4882
 k-point 86 :  0.13890.13890.0000  plane waves:   4881
 k-point 87 :  0.16670.13890.0000  plane waves:   4883
 k-point 88 :  0.19440.13890.0000  plane waves:   4893
 k-point 89 :  0.22220.13890.0000  plane waves:   4885
 k-point 90 :  0.25000.13890.0000  plane waves:   4887
 k-point 91 :  0.27780.13890.0000  plane waves:   4881
 k-point 92 :  0.30560.13890.0000  plane waves:   4882
 k-point 93 :  0.33330.13890.0000  plane waves:   4883
 k-point 94 :  0.36110.13890.0000  plane waves:   4880
 k-point 95 :  0.38890.13890.0000  plane waves:   4888
 k-point 96 :  0.41670.13890.0000  plane waves:   4894
 k-point 97 :  0.44440.13890.0000  plane waves:   4894
 k-point 98 :  0.47220.13890.0000  plane waves:   4892
 k-point 99 :  0.50000.13890.0000  plane waves:   4886
 k-point ** :  0.16670.16670.0000  plane waves:   4881
 k-point ** :  0.19440.16670.0000  plane waves:   4889
 k-point ** :  0.22220.16670.0000  plane waves:   4886
 k-point ** :  0.25000.16670.0000  plane waves:   4885
 k-point ** :  0.27780.16670.0000  plane waves:   4888
 k-point ** :  0.30560.16670.0000  plane waves:   4886
 k-point ** :  0.33330.16670.0000  plane waves:   4876
 k-point ** :  0.36110.16670.0000  plane waves:   4883
 k-point ** :  0.38890.16670.0000  plane waves:   4886
 k-point ** :  0.41670.16670.0000  plane waves:   4888
 k-point ** :  0.44440.16670.0000  plane waves:   4898
 k-point ** :  0.47220.16670.0000  plane waves:   4889
 k-point ** :  0.50000.16670.0000  plane waves:   4890
 k-point ** :  0.19440.19440.0000  plane waves:   4889
 k-point ** :  0.22220.19440.0000  plane waves:   4889
 k-point ** :  0.25000.19440.0000  plane waves:   4889
 k-point ** :  0.27780.19440.0000  plane waves:   4885
 k-point ** :  0.30560.19440.0000  plane waves:   4888
 k-point ** :  0.33330.19440.0000  plane waves:   4889
 k-point ** :  0.36110.19440.0000  plane waves:   4897
 k-point ** :  0.38890.19440.0000  plane waves:   4898
 k-point ** :  0.41670.19440.0000  plane waves:   4894
 k-point ** :  0.44440.19440.0000  plane waves:   4892
 k-point ** :  0.47220.19440.0000  plane waves:   4885
 k-point ** :  0.50000.19440.0000  plane waves:   4886
 k-point ** :  0.22220.22220.0000  plane waves:   4895
 k-point ** :  0.25000.22220.0000  plane waves:   4893
 k-point ** :  0.27780.22220.0000  plane waves:   4893
 k-point ** :  0.30560.22220.0000  plane waves:   4890
 k-point ** :  0.33330.22220.0000  plane waves:   4884
 k-point ** :  0.36110.22220.0000  plane waves:   4893
 k-point ** :  0.38890.22220.0000  plane waves:   4894
 k-point ** :  0.41670.22220.0000  plane waves:   4892
 k-point ** :  0.44440.22220.0000  plane waves:   4897
 k-point ** :  0.47220.22220.0000  plane waves:   4880
 k-point ** :  0.50000.22220.0000  plane waves:   4870
 k-point ** :  0.25000.25000.0000  plane waves:   4903
 k-point ** :  0.27780.25000.0000  plane waves:   4891
 k-point ** :  0.30560.25000.0000  plane waves:   4892
 k-point ** :  0.33330.25000.0000  plane waves:   4894
 k-point ** :  0.36110.25000.0000  plane waves:   4884
 k-point ** :  0.38890.25000.0000  plane waves:   4875
 k-point ** :  0.41670.25000.0000  plane waves:   4871
 k-point ** :  0.44440.25000.0000  plane waves:   4881
 k-point ** :  0.47220.25000.0000  plane waves:   4862
 k-point ** :  0.50000.25000.0000  plane waves:   4858
 k-point ** :  0.27780.27780.0000  plane waves:   4885
 k-point ** :  0.30560.27780.0000  plane waves:   4895
 k-point ** :  0.33330.27780.0000  plane waves:   4887
 k-point ** :  0.36110.27780.0000  plane waves:   4881
 k-point ** :  0.38890.27780.0000  plane waves:   4877
 k-point ** :  0.41670.27780.0000  plane waves:   4879
 k-point ** :  0.44440.27780.0000  plane waves:   4867
 k-point ** :  0.47220.27780.0000  plane waves:   4867
 k-point ** :  0.50000.27780.0000  plane waves:   4864
 k-point ** :  0.30560.30560.0000  plane waves:   4895
 k-point ** :  0.33330.30560.0000  plane waves:   4885
 k-point ** :  0.36110.30560.0000  plane waves:   4885
 k-point ** :  0.38890.30560.0000  plane waves:   4882
 k-point ** :  0.41670.30560.0000  plane waves:   4870
[...]
 k-point ** :  0.47220.44440.4167  plane waves:   4832
 k-point ** :  0.50000.44440.4167  plane waves:   4834
 k-point ** :  0.47220.47220.4167  plane waves:   4836
 k-point ** :  0.50000.47220.4167  plane waves:   4834
 k-point ** :  0.50000.50000.4167  plane waves:   4836
 k-point ** :  0.44440.44440.4444  plane waves:   4836
 k-point ** :  0.47220.44440.4444  plane waves:   4834
 k-point ** :  0.50000.44440.4444  plane waves:   4834
 k-point ** :  0.47220.47220.4444  plane waves:   4832
 k-point ** :  0.50000.47220.4444  plane waves:   4828
 k-point ** :  0.50000.50000.4444  plane waves:   4836
 k-point ** :  0.47220.47220.4722  plane waves:   4836
 k-point ** :  0.50000.47220.4722  plane waves:   4834
 k-point ** :  0.50000.50000.4722  plane waves:   4820
 k-point ** :  0.50000.50000.5000  plane waves:   4776

 maximum and minimum number of plane-waves per node :   4945  4776

 maximum number of plane-waves:   4945
 maximal index in each direction:
   IXMAX= 10   IYMAX= 10   IZMAX= 10
   IXMIN=-11   IYMIN=-11   IZMIN=-10

 WARNING: wrap around error must be expected set NGX to  44
 WARNING: wrap around error must be expected set NGY to  44
 NGZ is ok and might be reduce to  42

 parallel 3dFFT wavefunction:
    minimum data exchange during FFTs selected (reduces bandwidth)
 parallel 3dFFT charge:
    minimum data exchange during FFTs selected (reduces bandwidth)

Broyden mixing: mesh for mixing (old mesh)
   NGX = 21   NGY = 21   NGZ = 21
  (NGX  = 84   NGY  = 84   NGZ  = 84)
 gives a total of   9261 points
 initial charge density was supplied:
 charge density of overlapping atoms calculated
 number of electron   44.0000000 magnetization
 keeping initial charge density in first step

 Maximum index for augmentation-charges        52204 (set IRDMAX)

 First call to EWALD:  gamma=   0.434
 Maximum number of real-space cells 3x 3x 3
 Maximum number of reciprocal cells 3x 3x 3

----------------------------------------- Iteration    1(   1)  ---------------------------------------

 eigenvalue-minimisations  : 85144
 total energy-change (2. order) : 0.5439432E+03  (-0.3259618E+04)
 number of electron   44.0000000 magnetization
 augmentation part    44.0000000 magnetization

 Free energy of the ion-electron system (eV)
  alpha Z        PSCENC =       418.18676115
  Ewald energy   TEWEN  =     -3915.47993517
  -1/2 Hartree   DENC   =      -807.77891148
  -V(xc)+E(xc)   XCENC  =       -42.74434496
  PAW double counting   =      3482.67677651    -3297.07979946
  entropy T*S    EENTRO =        -0.00011890
  eigenvalues    EBANDS =       556.51033344
  atomic energy  EATOM  =      4149.65242778
  free energy    TOTEN  =       543.94318892 eV

  energy without entropy =      543.94330782  energy(sigma->0) =      543.94324837

[...]

 eigenvalue-minimisations  : 85168
 total energy-change (2. order) :-0.5406406E+03  (-0.5062192E+03)
 number of electron   44.0000000 magnetization
 augmentation part    44.0000000 magnetization

[...]

 eigenvalue-minimisations  :100808
 total energy-change (2. order) :-0.3401459E-03  (-0.3401415E-03)
 number of electron   44.0000001 magnetization
 augmentation part    20.3438891 magnetization

 Broyden mixing:
  rms(total) = 0.58625E+00    rms(broyden)= 0.58625E+00
  rms(prec ) = 0.14577E+01
  weight for this iteration     100.00

[...]

 eigenvalues of (default mixing * dielectric matrix)
  average eigenvalue GAMMA=   1.0882
  1.0882

[...]

 eigenvalue-minimisations  : 98296
 total energy-change (2. order) :-0.1344211E-03  (-0.2177583E-04)
 number of electron   44.0000001 magnetization
 augmentation part    21.0725623 magnetization

[...]

 Broyden mixing:
  rms(total) = 0.88315E-06    rms(broyden)= 0.88315E-06
  rms(prec ) = 0.16695E-05
  weight for this iteration     100.00

 eigenvalues of (default mixing * dielectric matrix)
  average eigenvalue GAMMA=   1.7739
  3.1165  2.6913  2.5242  2.5242  0.9016  1.0159  1.0159  1.1374  1.0380

[...]

----------------------------------------- Iteration    1(  15)  ---------------------------------------

 eigenvalue-minimisations  : 51224
 total energy-change (2. order) : 0.3100467E-08  (-0.1027254E-11)
 number of electron   44.0000001 magnetization
 augmentation part    21.0710587 magnetization

 Free energy of the ion-electron system (eV)
  alpha Z        PSCENC =       418.18676115
  Ewald energy   TEWEN  =     -3915.47993517
  -1/2 Hartree   DENC   =      -759.09514028
  -V(xc)+E(xc)   XCENC  =       -44.51678260
  PAW double counting   =      3485.34269763    -3309.43101240
  entropy T*S    EENTRO =        -0.00005655
  eigenvalues    EBANDS =       -35.88815221
  atomic energy  EATOM  =      4149.65242778
  free energy    TOTEN  =       -11.22919265 eV

  energy without entropy =      -11.22913610  energy(sigma->0) =      -11.22916438

 average (electrostatic) potential at core
  the test charge radii are     1.1249
  (the norm of the test charge is              1.0000)
       1 -41.2536       2 -41.2536       3 -41.2536       4 -41.2536

 E-fermi :   3.5945     XC(G=0): -12.2328     alpha+bet : -8.5725
   add alpha+bet to get absolut eigen values

 k-point   1 :       0.0000    0.0000    0.0000
  band No.  band energies     occupation
      1      -4.2409      2.00000
      2      -2.9393      2.00000
      3      -2.9393      2.00000
      4      -2.9393      2.00000
      5      -2.8002      2.00000
      6      -2.8002      2.00000
      7      -2.8002      2.00000
      8      -1.2918      2.00000
      9      -1.2918      2.00000
     10      -1.2918      2.00000
     11      -0.2488      2.00000
     12      -0.2488      2.00000
     13       0.5198      2.00000
     14       0.5198      2.00000
     15       0.5198      2.00000
     16       0.7603      2.00000
     17       0.7603      2.00000
     18       0.7603      2.00000
     19       0.7603      2.00000
     20       0.7603      2.00000
     21       0.7603      2.00000
     22       5.1704      0.00000
     23       5.1704      0.00000
     24       5.1704      0.00000
     25      10.3360      0.00000
     26      10.3360      0.00000
     27      10.3360      0.00000
     28      14.4386      0.00000
     29      14.4386      0.00000
     30      14.4386      0.00000
     31      14.4386      0.00000
     32      14.4386      0.00000

[...]

 k-point *** :       0.5000    0.5000    0.5000
  band No.  band energies     occupation
      1      -2.8886      2.00000
      2      -2.8886      2.00000
      3      -2.8886      2.00000
      4      -2.8886      2.00000
      5      -1.3139      2.00000
      6      -1.3139      2.00000
      7      -1.3139      2.00000
      8      -1.3139      2.00000
      9      -1.3139      2.00000
     10      -1.3139      2.00000
     11      -1.3139      2.00000
     12      -1.3139      2.00000
     13       0.5515      2.00000
     14       0.5515      2.00000
     15       0.5515      2.00000
     16       0.5515      2.00000
     17       0.5515      2.00000
     18       0.5515      2.00000
     19       0.5515      2.00000
     20       0.5515      2.00000
     21       3.1402      2.00000
     22       3.1402      2.00000
     23       3.1402      2.00000
     24       3.1402      2.00000
     25       7.1885      0.00000
     26       7.1885      0.00000
     27       7.1885      0.00000
     28       7.1885      0.00000
     29      19.5164      0.00000
     30      19.5164      0.00000
     31      19.5164      0.00000
     32      19.5164      0.00000

 soft charge-density along one line, spin component           1
         0         1         2         3         4         5         6         7         8         9
 total charge-density along one line

------------------------ aborting loop because EDIFF is reached ----------------------------------------

  FREE ENERGIE OF THE ION-ELECTRON SYSTEM (eV)
  free  energy   TOTEN  =       -11.229193 eV

  energy  without entropy=      -11.229136  energy(sigma->0) =      -11.229164

  FORCE on cell =-STRESS in cart. coord.  units (eV/reduce length):
  Direction    X        Y        Z        XY       YZ       ZX
  Alpha Z    418.19    418.19    418.19
  Ewald    -1305.16  -1305.16  -1305.16      0.00     -0.00     -0.00
  Hartree    253.03    253.03    253.03     -0.00     -0.00     -0.00
  E(xc)     -233.00   -233.00   -233.00     -0.00      0.00      0.00
  Local      417.04    417.04    417.04     -0.00      0.00      0.00
  n-local   -253.78   -262.17   -264.55      0.34      2.49      0.76
  augment    167.83    167.83    167.83     -0.00     -0.00     -0.00
  Kinetic    552.75    543.61    538.53     -3.22      0.32     -1.43
  Total        2.72      2.72      2.72      0.00      0.00     -0.00
  in kB       64.19     64.19     64.19      0.00      0.00     -0.00

 VOLUME and BASIS-vectors are now :
  energy-cutoff  :     1000.00
  volume of cell :       67.94
      direct lattice vectors                 reciprocal lattice vectors
     4.080493744  0.000000000  0.000000000     0.245068382  0.000000000  0.000000000
     0.000000000  4.080493744  0.000000000     0.000000000  0.245068382  0.000000000
     0.000000000  0.000000000  4.080493744     0.000000000  0.000000000  0.245068382

  length of vectors
     4.080493744  4.080493744  4.080493744     0.245068382  0.245068382  0.245068382

 FORCES acting on ions
    electron-ion (+dipol)            ewald-force                    non-local-force                 convergence-correction
   -.151E-14 -.489E-14 -.602E-13   -.113E-13 -.133E-13 -.141E-13   0.277E-25 -.202E-25 -.262E-25   0.343E-13 0.160E-13 0.217E-13
   0.305E-12 -.163E-11 0.190E-12   -.105E-13 -.179E-14 -.140E-13   -.961E-26 -.314E-25 0.257E-25   -.654E-13 -.456E-13 0.218E-13
   0.305E-12 -.327E-14 -.489E-12   0.169E-13 0.647E-15 0.135E-13   0.148E-25 0.138E-25 -.329E-25   -.616E-13 0.112E-13 -.457E-13
   -.152E-14 0.288E-12 0.239E-12   0.222E-16 0.121E-13 0.137E-13   -.466E-25 -.841E-25 -.330E-25   0.328E-13 -.452E-13 -.438E-13
   0.607E-12 -.135E-11 -.119E-12   -.480E-14 -.229E-14 -.856E-15   -.138E-25 -.122E-24 -.665E-25   -.598E-13 -.637E-13 -.459E-13

 POSITION                                       TOTAL-FORCE (eV/Angst)
      0.00000      0.00000      0.00000         0.000000     -0.000000     -0.000000
      2.04025      2.04025      0.00000         0.000000      0.000000      0.000000
      2.04025      0.00000      2.04025        -0.000000     -0.000000     -0.000000
      0.00000      2.04025      2.04025         0.000000      0.000000      0.000000
    total drift:                                0.000000     -0.000000     -0.000000

 mean value of Nose-termostat <S>:     1.000 mean value of <T> :     0.000
 mean temperature <T/S>/<1/S>  :     0.000