 vasp.4.6.28 25Jul05 complex
 executed on             LinuxIFC date 2016.09.01  15:59:59

 INCAR:
 POTCAR:   PAW_PBE Ag 06Sep2000
 POTCAR:   PAW_PBE Ag 06Sep2000
   VRHFIN =Ag : s1 d10

   TITEL  = PAW_PBE Ag 06Sep2000
   POMASS =  107.868; ZVAL   =   11.000    mass and valenz
   ENMAX  =  249.846; ENMIN  =  187.385 eV
   QCUT   =   -4.285; QGAM   =    8.570    optimization parameters

   Description
     l     E      TYP  RCUT    TYP  RCUT
     2   .000     23  2.400
     2   .000     23  2.400
     0   .000     23  2.400
     0   .000     23  2.400
     1  -.200     23  2.400
     1  1.500     23  2.400
     3   .000      7   .000

 PAW_PBE Ag 06Sep2000                   :

 POSCAR: No title
  positions in direct lattice

 ion  position               nearest neighbor table
   1  0.750  0.750  0.500-   3 3.10   5 3.10  14 3.10  19 3.10  20 3.10  26 3.10  11 3.10   6 3.10
                            18 3.10  29 3.10  10 3.10   8 3.10
   2  0.750  0.750  0.000-  12 3.09  10 3.10  11 3.10   8 3.10  18 3.10  22 3.10  27 3.10  26 3.10
                             5 3.10  32 3.10   3 3.10  20 3.10
   3  0.750  0.000  0.250-  12 3.09   5 3.10   9 3.10   1 3.10  19 3.10  28 3.10  18 3.10   6 3.10
                            27 3.10  13 3.10   4 3.10   2 3.10
   4  0.750  0.250  0.500-   6 3.10   8 3.10  10 3.10  13 3.10  29 3.10  31 3.10  21 3.10  28 3.10
                            14 3.10  19 3.10   3 3.10  20 3.10
   5  0.000  0.750  0.250-   1 3.10   3 3.10  14 3.10  15 3.10  25 3.10   2 3.10   7 3.10  16 3.10
                            10 3.10  22 3.10   6 3.10  12 3.10
   6  0.000  0.000  0.500-   4 3.10   7 3.10   8 3.10  11 3.10  13 3.10  16 3.10   1 3.10   3 3.10
                            17 3.10  23 3.10  21 3.10   5 3.10
   7  0.250  0.750  0.500-   6 3.10  11 3.10  16 3.10  18 3.10  29 3.10  30 3.10  19 3.10  26 3.10
                             5 3.10  14 3.10  25 3.10  23 3.10
   8  0.750  0.000  0.750-  12 3.09   4 3.10   6 3.10  11 3.10   2 3.10  27 3.10  31 3.10  26 3.10
                            19 3.10  21 3.10   9 3.10   1 3.10
   9  0.750  0.250  0.000-  12 3.09   3 3.10  20 3.10  21 3.10  28 3.10  32 3.10  27 3.10  13 3.10
                            31 3.10  22 3.10  10 3.10   8 3.10
  10  0.750  0.500  0.250-   2 3.10   4 3.10  13 3.10  18 3.10  22 3.10  29 3.10  14 3.10  28 3.10
                             5 3.10  32 3.10   9 3.10   1 3.10
  11  0.000  0.750  0.750-   2 3.10   6 3.10   7 3.10   8 3.10  22 3.10  30 3.10  20 3.10   1 3.10
                            23 3.10  15 3.10  14 3.10  12 3.10
  12  0.998  0.000  0.000-   9 3.09   3 3.09   8 3.09   2 3.09   5 3.10  21 3.10  11 3.10  13 3.10
                            15 3.12  23 3.12  24 3.12  16 3.12
  13  0.000  0.250  0.250-   4 3.10   6 3.10  10 3.10  16 3.10  22 3.10  24 3.10  17 3.10   3 3.10
                             9 3.10  25 3.10  14 3.10  12 3.10
  14  0.000  0.500  0.500-   1 3.10   5 3.10  17 3.10  20 3.10  21 3.10  25 3.10   7 3.10  10 3.10
                             4 3.10  30 3.10  13 3.10  11 3.10
  15  0.250  0.750  0.000-   5 3.10  23 3.10  25 3.10  26 3.10  32 3.10  18 3.10  22 3.10  27 3.10
                            11 3.10  30 3.10  16 3.10  12 3.12
  16  0.250  0.000  0.250-   6 3.10   7 3.10  13 3.10  18 3.10  24 3.10  27 3.10   5 3.10  19 3.10
                            28 3.10  17 3.10  15 3.10  12 3.12
  17  0.250  0.250  0.500-  14 3.10  19 3.10  21 3.10  23 3.10  25 3.10  28 3.10   6 3.10  13 3.10
                            29 3.10  31 3.10  30 3.10  16 3.10
  18  0.500  0.750  0.250-   2 3.10   7 3.10  10 3.10  16 3.10  27 3.10  29 3.10   1 3.10  25 3.10
                             3 3.10  15 3.10  19 3.10  32 3.10
  19  0.500  0.000  0.500-   1 3.10   3 3.10  17 3.10  23 3.10  26 3.10  28 3.10   4 3.10   7 3.10
                             8 3.10  16 3.10  18 3.10  31 3.10
  20  0.750  0.500  0.750-   1 3.10   9 3.10  14 3.10  21 3.10  26 3.10  32 3.10  11 3.10  29 3.10
                            31 3.10  22 3.10   4 3.10   2 3.10
  21  0.000  0.250  0.750-   9 3.10  14 3.10  17 3.10  20 3.10  23 3.10   8 3.10   4 3.10  24 3.10
                            30 3.10  22 3.10   6 3.10  12 3.10
  22  0.000  0.500  0.000-   2 3.10  10 3.10  11 3.10  13 3.10  24 3.10  30 3.10  20 3.10   9 3.10
                            25 3.10  15 3.10  21 3.10   5 3.10
  23  0.250  0.000  0.750-  15 3.10  17 3.10  19 3.10  21 3.10  26 3.10  11 3.10   6 3.10  27 3.10
                            31 3.10  24 3.10   7 3.10  12 3.12
  24  0.250  0.250  0.000-  13 3.10  16 3.10  22 3.10  27 3.10  30 3.10  31 3.10  21 3.10  28 3.10
                            32 3.10  25 3.10  23 3.10  12 3.12
  25  0.250  0.500  0.250-   5 3.10  14 3.10  15 3.10  17 3.10  28 3.10  32 3.10  22 3.10  13 3.10
                            29 3.10  18 3.10  24 3.10   7 3.10
  26  0.500  0.750  0.750-   1 3.10  15 3.10  19 3.10  20 3.10  23 3.10  32 3.10   8 3.10   2 3.10
                            30 3.10   7 3.10  27 3.10  29 3.10
  27  0.500  0.000  0.000-   2 3.10   8 3.10  16 3.10  18 3.10  24 3.10  31 3.10   9 3.10  23 3.10
                            15 3.10   3 3.10  28 3.10  26 3.10
  28  0.500  0.250  0.250-   3 3.10   9 3.10  17 3.10  19 3.10  25 3.10  32 3.10  10 3.10  24 3.10
                            16 3.10   4 3.10  29 3.10  27 3.10
  29  0.500  0.500  0.500-   4 3.10   7 3.10  10 3.10  18 3.10  30 3.10  31 3.10  20 3.10  25 3.10
                            17 3.10   1 3.10  26 3.10  28 3.10
  30  0.250  0.500  0.750-   7 3.10  11 3.10  22 3.10  24 3.10  29 3.10  31 3.10  26 3.10  14 3.10
                            21 3.10  32 3.10  17 3.10  15 3.10
  31  0.500  0.250  0.750-   4 3.10   8 3.10  24 3.10  27 3.10  29 3.10  30 3.10   9 3.10  17 3.10
                            20 3.10  23 3.10  19 3.10  32 3.10
  32  0.500  0.500  0.000-   9 3.10  15 3.10  20 3.10  25 3.10  26 3.10  28 3.10   2 3.10  10 3.10
                            24 3.10  30 3.10  18 3.10  31 3.10

  LATTYP: Found a simple cubic cell.
 ALAT       =     8.7789371900

  Lattice vectors:

 A1 = (   8.7789371900,   0.0000000000,   0.0000000000)
 A2 = (   0.0000001600,   8.7789371900,   0.0000000000)
 A3 = (   0.0000001600,   0.0000001600,   8.7789371900)
 Subroutine PRICEL returns:
 Original cell was already a primitive cell.

Analysis of symmetry for initial positions (statically):

 Routine SETGRP: Setting up the symmetry group for a
 simple cubic supercell.

 Subroutine GETGRP returns: Found  8 space group operations
 (whereof  8 operations were pure point group operations)
 out of a pool of 48 trial point group operations.

The static configuration has the point symmetry C_4v.

Analysis of symmetry for dynamics (positions and initial velocities):

 Subroutine DYNSYM returns: Found  8 space group operations
 (whereof  8 operations were pure point group operations)
 out of a pool of  8 trial space group operations
 (whereof  8 operations were pure point group operations)
 and found also     1 'primitive' translations

The dynamic configuration has the point symmetry C_4v.

 KPOINTS: Automatic mesh

Automatic generation of k-mesh.

 Subroutine IBZKPT returns following result:

 Found      1 irreducible k-points:

 Following reciprocal coordinates:
            Coordinates               Weight
  0.250000  0.250000  0.250000      8.000000

 Following cartesian coordinates:
            Coordinates               Weight
  0.028477  0.028477  0.028477      8.000000

 I would recommend the setting:
   dimension x,y,z NGX =    34 NGY =   34 NGZ =   34
 SYSTEM =  No title
 POSCAR =  No title

 Startparameter for this run:
   NWRITE =      2    write-flag & timer
   PREC   = normal    medium, high low
   ISTART =      1    job   : 0-new  1-cont  2-samecut
   ICHARG =      0    charge: 1-file 2-atom 10-const
   ISPIN  =      1    spin polarized calculation?
   LNONCOLLINEAR =      F non collinear calculations
   LSORBIT =      F    spin-orbit coupling
   INIWAV =      1    electr: 0-lowe 1-rand  2-diag
   LASPH  =      F    aspherical Exc in radial PAW
   METAGGA=      F    non-selfconsistent MetaGGA calc.

 Electronic Relaxation 1
   ENCUT  =  249.8 eV  18.36 Ry    4.29 a.u.  11.31 11.31 11.31*2*pi/ulx,y,z
   ENINI  =  249.8     initial cutoff
   ENAUG  =  412.5 eV  augmentation charge cutoff
   NELM   =     60;   NELMIN=  2; NELMDL=  0     # of ELM steps
   EDIFF  = 0.1E-04   stopping-criterion for ELM
   LREAL  =      F    real-space projection
   LCOMPAT=      F    compatible to vasp.4.4
   LREAL_COMPAT= F    compatible to vasp.4.5.1-3
   GGA_COMPAT  = T    GGA compatible to vasp.4.4-vasp.4.6
   LMAXPAW     = -100 max onsite density
   LMAXMIX     =    2 max onsite mixed and CHGCAR
   VOSKOWN=      1    Vosko Wilk Nusair interpolation
   ROPT   =    0.00000
 Ionic relaxation
   EDIFFG = -.2E-01   stopping-criterion for IOM
   NSW    =      0    number of steps for IOM
   NBLOCK =      1;   KBLOCK =      1    inner block; outer block
   IBRION =     -1    ionic relax: 0-MD 1-quasi-New 2-CG
   NFREE  =      0    steps in history (QN), initial steepest desc. (CG)
   ISIF   =      2    stress and relaxation
   IWAVPR =     10    prediction:  0-non 1-charg 2-wave 3-comb
   ISYM   =      2    0-nonsym 1-usesym 2-fastsym
   LCORR  =      T    Harris-Foulkes like correction to forces

   POTIM  =   0.50    time-step for ionic-motion
   TEIN   =    0.0    initial temperature
   TEBEG  =    0.0;   TEEND  =   0.0 temperature during run
   SMASS  =  -3.00    Nose mass-parameter (am)
   estimated Nose-frequenzy (Omega)   =  0.10E-29 period in steps =****** mass=  -0.176E-26a.u.
   NPACO  =    256;   APACO  = 16.0  distance and # of slots for P.C.
   PSTRESS=    0.0 pullay stress

  Mass of Ions in am
   POMASS = 107.87
  Ionic Valenz
   ZVAL   =  11.00
  Atomic Wigner-Seitz radii
   NELECT =     352.0000    total number of electrons
   NUPDOWN=      -1.0000    fix difference up-down

 DOS related values:
   EMIN   =  10.00;   EMAX   =-10.00  energy-range for DOS
   ISMEAR =     1;   SIGMA  =   0.20  broadening in eV -4-tet -1-fermi 0-gaus

 Electronic relaxation 2 (details)
   IALGO  =     38    algorithm
   LDIAG  =      T    sub-space diagonalisation
   IMIX   =      4    mixing-type and parameters
     AMIX     =   0.40;   BMIX     =  1.00
     AMIX_MAG =   1.60;   BMIX_MAG =  1.00
     AMIN     =   0.10
     WC   =   100.;   INIMIX=   1;  MIXPRE=   1

 Intra band minimization:
   WEIMIN = 0.0000     energy-eigenvalue tresh-hold
   EBREAK =  0.12E-07  absolut break condition
   DEPER  =   0.30     relativ break condition

   TIME   =   0.10     timestep for ELM

  volume/ion in A,a.u.               =      21.14       142.68
  Fermi-wavevector in a.u.,eV,Ry     =   1.316681 23.587711  1.733648

 Second variation
   LSECVAR=     F    do a second variation

 Write flags
   LWAVE  =      F    write WAVECAR
   LCHARG =      F    write CHGCAR
   LVTOT  =      F    write LOCPOT, local potential
   LELF   =      F    write electronic localiz. function (ELF)
   LORBIT =      0    0 simple, 1 ext, 2 COOP (PROOUT)

 Dipole corrections
   IDIPOL =      0    1-x, 2-y, 3-z
   LDIPOL =      F    correct potential

 Static calculation
[...]
   2.19473442  0.00000012  6.58420289
   2.19473434  2.19473430  0.00000000
   2.19473442  4.38946864  2.19473430
   4.38946884  6.58420301  6.58420289
   4.38946860  0.00000000  0.00000000
   4.38946867  2.19473434  2.19473430
   4.38946876  4.38946868  4.38946860
   2.19473450  4.38946872  6.58420289
   4.38946876  2.19473442  6.58420289
   4.38946868  4.38946860  0.00000000

 k-point  1 :  0.25000.25000.2500  plane waves:   6052

 maximum and minimum number of plane-waves per node :   6052  6052

 maximum number of plane-waves:   6052
 maximal index in each direction:
   IXMAX= 11   IYMAX= 11   IZMAX= 11
   IXMIN=-11   IYMIN=-11   IZMIN=-11

 WARNING: wrap around error must be expected set NGX to  46
 WARNING: wrap around error must be expected set NGY to  46
 WARNING: wrap around error must be expected set NGZ to  46

 parallel 3dFFT wavefunction:
    minimum data exchange during FFTs selected (reduces bandwidth)
 parallel 3dFFT charge:
    minimum data exchange during FFTs selected (reduces bandwidth)

Broyden mixing: mesh for mixing (old mesh)
   NGX = 23   NGY = 23   NGZ = 23
  (NGX  = 72   NGY  = 72   NGZ  = 72)
 gives a total of  12167 points
 charge density for first step will be calculated from the start-wavefunctions

 Maximum index for augmentation-charges          857 (set IRDMAX)

 initial charge from wavefunction
 First call to EWALD:  gamma=   0.202
 Maximum number of real-space cells 3x 3x 3
 Maximum number of reciprocal cells 3x 3x 3

----------------------------------------- Iteration    1(   1)  ---------------------------------------

 eigenvalue-minimisations  :   432
 total energy-change (2. order) :-0.8670223E+02  (-0.3484881E+00)
 number of electron  352.0006369 magnetization
 augmentation part   169.7873966 magnetization

 Broyden mixing:
  rms(total) = 0.82169E-01    rms(broyden)= 0.81922E-01
  rms(prec ) = 0.18423E+00
  weight for this iteration     100.00

 Free energy of the ion-electron system (eV)
  alpha Z        PSCENC =      2687.58728278
  Ewald energy   TEWEN  =    -29118.88956108
  -1/2 Hartree   DENC   =     -7234.06360645
  -V(xc)+E(xc)   XCENC  =      -371.57832247
  PAW double counting   =     27498.39162508   -26059.84789469
  entropy T*S    EENTRO =        -0.17029231
  eigenvalues    EBANDS =      -683.15653893
  atomic energy  EATOM  =     33195.02507890
  free energy    TOTEN  =       -86.70222919 eV

  energy without entropy =      -86.53193688  energy(sigma->0) =      -86.64546508

[...]

 eigenvalue-minimisations  :   468
 total energy-change (2. order) : 0.4440923E-01  (-0.1327284E-01)
 number of electron  352.0006369 magnetization
 augmentation part   169.7822062 magnetization

[...]

 eigenvalues of (default mixing * dielectric matrix)
  average eigenvalue GAMMA=   1.3675
  1.3675

[...]

 eigenvalue-minimisations  :   448
 total energy-change (2. order) :-0.4000314E-04  (-0.1833086E-04)
 number of electron  352.0006369 magnetization
 augmentation part   169.7794774 magnetization

 Broyden mixing:
  rms(total) = 0.16002E-02    rms(broyden)= 0.15991E-02
  rms(prec ) = 0.20486E-02
  weight for this iteration     100.00

 eigenvalues of (default mixing * dielectric matrix)
  average eigenvalue GAMMA=   1.4133
  2.4852  1.3339  0.9170  0.9170

[...]

----------------------------------------- Iteration    1(   6)  ---------------------------------------

 eigenvalue-minimisations  :   264
 total energy-change (2. order) : 0.8752977E-06  (-0.1885853E-05)
 number of electron  352.0006369 magnetization
 augmentation part   169.7794774 magnetization

 Free energy of the ion-electron system (eV)
  alpha Z        PSCENC =      2687.58728278
  Ewald energy   TEWEN  =    -29118.88956108
  -1/2 Hartree   DENC   =     -7234.55470635
  -V(xc)+E(xc)   XCENC  =      -371.56521475
  PAW double counting   =     27499.25830731   -26060.72756345
  entropy T*S    EENTRO =        -0.17301183
  eigenvalues    EBANDS =      -682.61672209
  atomic energy  EATOM  =     33195.02507890
  free energy    TOTEN  =       -86.65611057 eV

  energy without entropy =      -86.48309874  energy(sigma->0) =      -86.59843996

 average (electrostatic) potential at core
  the test charge radii are     1.1249
  (the norm of the test charge is              1.0000)
       1 -42.4747       2 -42.4751       3 -42.4751       4 -42.4747       5 -42.4743
       6 -42.4743       7 -42.4738       8 -42.4751       9 -42.4751      10 -42.4747
      11 -42.4743      12 -42.4744      13 -42.4743      14 -42.4742      15 -42.4735
      16 -42.4735      17 -42.4738      18 -42.4743      19 -42.4743      20 -42.4747
      21 -42.4743      22 -42.4743      23 -42.4735      24 -42.4735      25 -42.4738
      26 -42.4743      27 -42.4743      28 -42.4743      29 -42.4743      30 -42.4738
      31 -42.4743      32 -42.4743

 E-fermi :   1.5735     XC(G=0): -10.9679     alpha+bet : -6.8867
   add alpha+bet to get absolut eigen values

 k-point   1 :       0.2500    0.2500    0.2500
  band No.  band energies     occupation
      1      -4.0990      2.00000
      2      -3.3460      2.00000
      3      -3.2843      2.00000
      4      -3.2841      2.00000
      5      -3.2839      2.00000
      6      -3.2677      2.00000
      7      -3.2661      2.00000
      8      -3.2645      2.00000
      9      -3.2224      2.00000
     10      -3.2223      2.00000
     11      -3.2222      2.00000
     12      -3.1741      2.00000
     13      -3.1737      2.00000
     14      -3.1734      2.00000
     15      -3.0502      2.00000
     16      -3.0488      2.00000
     17      -3.0482      2.00000
     18      -3.0460      2.00000
     19      -3.0454      2.00000
     20      -3.0441      2.00000
     21      -2.9622      2.00000
     22      -2.9611      2.00000
     23      -2.9606      2.00000
     24      -2.9606      2.00000
     25      -2.9601      2.00000
     26      -2.9591      2.00000
     27      -2.9185      2.00000
     28      -2.9175      2.00000
     29      -2.9164      2.00000
     30      -2.8915      2.00000
     31      -2.8911      2.00000
     32      -2.8900      2.00000
     33      -2.8900      2.00000
     34      -2.8889      2.00000
     35      -2.8885      2.00000
     36      -2.8661      2.00000
     37      -2.8654      2.00000
     38      -2.8647      2.00000
     39      -2.7487      2.00000
     40      -2.7480      2.00000
     41      -2.7473      2.00000
     42      -2.7472      2.00000
     43      -2.7465      2.00000
     44      -2.7459      2.00000
     45      -2.5650      2.00000
     46      -2.5639      2.00000
     47      -2.5627      2.00000
     48      -2.5033      2.00000
     49      -2.5020      2.00000
     50      -2.5015      2.00000
     51      -2.5014      2.00000
     52      -2.5009      2.00000
     53      -2.5002      2.00000
     54      -2.4993      2.00000
     55      -2.4987      2.00000
     56      -2.4974      2.00000
     57      -2.4259      2.00000
     58      -2.4257      2.00000
     59      -2.4255      2.00000
     60      -2.3739      2.00000
[...]
    198       5.9666     -0.00000
    199       6.8117     -0.00000
    200       6.8122     -0.00000
    201       6.8141     -0.00000
    202       6.8141     -0.00000
    203       6.8160     -0.00000
    204       6.8164     -0.00000
    205       7.2059      0.00000
    206       8.0851      0.00000
    207       8.0852      0.00000
    208       8.0868      0.00000
    209       8.0868      0.00000
    210       8.0883      0.00000
    211       8.0885      0.00000
    212       8.3720      0.00000

 soft charge-density along one line, spin component           1
         0         1         2         3         4         5         6         7         8         9
 total charge-density along one line

------------------------ aborting loop because EDIFF is reached ----------------------------------------

  FREE ENERGIE OF THE ION-ELECTRON SYSTEM (eV)
  free  energy   TOTEN  =       -86.656111 eV

  energy  without entropy=      -86.483099  energy(sigma->0) =      -86.598440

  FORCE on cell =-STRESS in cart. coord.  units (eV/reduce length):
  Direction    X        Y        Z        XY       YZ       ZX
  Alpha Z   2687.59   2687.59   2687.59
  Ewald    -9706.42  -9706.30  -9706.30     -0.00     -0.00     -0.00
  Hartree   2411.46   2411.55   2411.55     -0.00     -0.00     -0.00
  E(xc)    -1851.26  -1851.26  -1851.26     -0.00     -0.00     -0.00
  Local     2914.83   2914.62   2914.62      0.00      0.00      0.00
  n-local  -2178.66  -2178.66  -2178.66      2.49      2.49      2.49
  augment   1333.95   1333.95   1333.95     -0.00     -0.00     -0.00
  Kinetic   4344.08   4344.08   4344.08     -2.63     -2.63     -2.63
  Total      -44.43    -44.43    -44.43     -0.00     -0.00     -0.00
  in kB     -105.21   -105.21   -105.21     -0.00     -0.00     -0.00

 VOLUME and BASIS-vectors are now :
  energy-cutoff  :      249.85
  volume of cell :      676.59
      direct lattice vectors                 reciprocal lattice vectors
     8.778937190  0.000000000  0.000000000     0.113909005 -0.000000002 -0.000000002
     0.000000160  8.778937190  0.000000000     0.000000000  0.113909005 -0.000000002
     0.000000160  0.000000160  8.778937190     0.000000000  0.000000000  0.113909005

  length of vectors
     8.778937190  8.778937190  8.778937190     0.113909005  0.113909005  0.113909005

 FORCES acting on ions
    electron-ion (+dipol)            ewald-force                    non-local-force                 convergence-correction
   0.236E-01 0.144E+00 -.129E-07   -.247E-01 -.134E+00 0.135E-07   0.251E-02 -.556E-02 -.542E-19   -.189E-02 -.282E-02 0.463E-09
   0.847E+00 0.165E+01 -.729E-08   -.846E+00 -.164E+01 0.258E-09   -.864E-02 -.753E-02 -.542E-19   0.317E-02 -.742E-02 -.556E-09
   0.847E+00 -.280E-07 -.165E+01   -.846E+00 0.296E-07 0.164E+01   -.864E-02 0.137E-09 0.753E-02   0.317E-02 0.413E-09 0.742E-02
   0.236E-01 -.144E+00 0.753E-08   -.247E-01 0.134E+00 -.791E-08   0.251E-02 0.556E-02 0.000E+00   -.189E-02 0.282E-02 -.254E-09
   -.106E+01 -.889E-02 0.889E-02   0.105E+01 0.755E-02 -.755E-02   -.283E-02 -.499E-03 0.499E-03   0.857E-02 0.177E-02 -.177E-02
   -.552E+00 0.195E-08 0.377E-07   0.559E+00 -.150E-08 -.404E-07   -.768E-02 0.113E-19 -.169E-20   0.182E-02 0.525E-09 -.135E-08
   0.282E-01 -.143E+00 0.723E-08   -.296E-01 0.134E+00 -.759E-08   0.247E-02 0.570E-02 0.000E+00   -.162E-02 0.237E-02 -.251E-09
   0.847E+00 0.227E-07 0.165E+01   -.846E+00 -.296E-07 -.164E+01   -.864E-02 -.137E-09 -.753E-02   0.317E-02 -.691E-09 -.742E-02
   0.847E+00 -.165E+01 0.202E-08   -.846E+00 0.164E+01 -.257E-09   -.864E-02 0.753E-02 0.000E+00   0.317E-02 0.742E-02 0.278E-09
   0.236E-01 0.491E-08 -.144E+00   -.247E-01 -.546E-08 0.134E+00   0.251E-02 0.101E-09 0.556E-02   -.189E-02 -.203E-09 0.282E-02
   -.106E+01 -.889E-02 -.889E-02   0.105E+01 0.755E-02 0.755E-02   -.283E-02 -.499E-03 -.499E-03   0.857E-02 0.177E-02 0.177E-02
   -.671E+01 0.107E-06 -.207E-04   0.669E+01 -.116E-06 -.116E-06   0.920E-01 -.184E-19 0.000E+00   -.302E-01 0.217E-08 0.217E-08
   -.106E+01 0.889E-02 0.889E-02   0.105E+01 -.755E-02 -.755E-02   -.283E-02 0.499E-03 0.499E-03   0.857E-02 -.177E-02 -.177E-02
   -.219E+00 0.103E-07 0.103E-07   0.231E+00 -.107E-07 -.107E-07   -.395E-02 0.131E-20 0.000E+00   -.493E-02 -.538E-09 -.538E-09
   0.860E+00 -.162E+01 0.191E-08   -.856E+00 0.161E+01 -.232E-09   -.799E-02 0.700E-02 -.542E-19   0.209E-04 0.943E-02 0.293E-09
   0.860E+00 0.224E-07 0.162E+01   -.856E+00 -.291E-07 -.161E+01   -.799E-02 -.128E-09 -.700E-02   0.211E-04 -.614E-09 -.943E-02
   0.282E-01 0.143E+00 -.131E-07   -.296E-01 -.134E+00 0.138E-07   0.247E-02 -.570E-02 0.000E+00   -.162E-02 -.237E-02 0.419E-09
   0.592E+00 0.239E-02 -.239E-02   -.593E+00 -.226E-02 0.226E-02   0.393E-02 -.384E-05 0.384E-05   -.388E-02 -.119E-03 0.119E-03
   0.451E+00 -.199E-08 -.247E-07   -.439E+00 0.148E-08 0.255E-07   -.143E-01 0.272E-20 0.000E+00   0.435E-02 -.601E-09 0.106E-08
   0.236E-01 -.102E-07 0.144E+00   -.247E-01 0.111E-07 -.134E+00   0.251E-02 -.101E-09 -.556E-02   -.189E-02 0.411E-09 -.282E-02
   -.106E+01 0.889E-02 -.889E-02   0.105E+01 -.755E-02 0.755E-02   -.283E-02 0.499E-03 -.499E-03   0.857E-02 -.177E-02 0.177E-02
   -.552E+00 0.377E-07 0.195E-08   0.559E+00 -.404E-07 -.150E-08   -.768E-02 -.662E-21 0.542E-19   0.182E-02 -.135E-08 0.525E-09
   0.860E+00 -.277E-07 -.162E+01   -.856E+00 0.291E-07 0.161E+01   -.799E-02 0.128E-09 0.700E-02   0.211E-04 0.465E-09 0.943E-02
   0.860E+00 0.162E+01 -.724E-08   -.856E+00 -.161E+01 0.283E-09   -.799E-02 -.700E-02 0.542E-19   0.209E-04 -.943E-02 -.442E-09
   0.282E-01 -.105E-07 0.143E+00   -.296E-01 0.113E-07 -.134E+00   0.247E-02 -.104E-09 -.570E-02   -.162E-02 0.375E-09 -.237E-02
   0.592E+00 0.239E-02 0.239E-02   -.593E+00 -.226E-02 -.226E-02   0.393E-02 -.384E-05 -.384E-05   -.388E-02 -.119E-03 -.119E-03
   0.178E+01 -.428E-08 -.428E-08   -.177E+01 0.199E-08 0.199E-08   0.155E-01 0.179E-20 -.271E-19   -.261E-01 -.102E-08 -.102E-08
   0.592E+00 -.239E-02 -.239E-02   -.593E+00 0.226E-02 0.226E-02   0.393E-02 0.384E-05 0.384E-05   -.388E-02 0.119E-03 0.119E-03
   0.192E+00 -.897E-08 -.897E-08   -.216E+00 0.944E-08 0.944E-08   0.125E-01 0.112E-19 0.542E-19   0.737E-02 0.473E-09 0.473E-09
   0.282E-01 0.462E-08 -.143E+00   -.296E-01 -.516E-08 0.134E+00   0.247E-02 0.104E-09 0.570E-02   -.162E-02 -.208E-09 0.237E-02
   0.592E+00 -.239E-02 0.239E-02   -.593E+00 0.226E-02 -.226E-02   0.393E-02 0.384E-05 -.384E-05   -.388E-02 0.119E-03 -.119E-03
   0.451E+00 -.247E-07 -.198E-08   -.439E+00 0.255E-07 0.148E-08   -.143E-01 0.988E-20 0.136E-19   0.435E-02 0.106E-08 -.601E-09
   0.282E-02 0.293E-10 -.208E-04   -.352E-12 0.266E-12 -.712E-13   0.300E-01 -.336E-17 0.403E-17   -.242E-01 0.455E-09 0.454E-09

 POSITION                                       TOTAL-FORCE (eV/Angst)
      6.58420      6.58420      4.38947        -0.000741      0.001750     -0.000000
      6.58420      6.58420      0.00000        -0.004273     -0.003563     -0.000000
      6.58420      0.00000      2.19473        -0.004273      0.000000      0.003563
      6.58420      2.19473      4.38947        -0.000741     -0.001750      0.000000
      0.00000      6.58420      2.19473         0.000812     -0.000060      0.000060
      0.00000      0.00000      4.38947         0.000602     -0.000000      0.000000
      2.19473      6.58420      4.38947        -0.000774     -0.001747     -0.000000
      6.58420      0.00000      6.58420        -0.004273     -0.000000     -0.003563
      6.58420      2.19473      0.00000        -0.004273      0.003563     -0.000000
      6.58420      4.38947      2.19473        -0.000741     -0.000000     -0.001750
      0.00000      6.58420      6.58420         0.000812     -0.000060     -0.000060
      8.75894      0.00000      0.00000         0.037045      0.000000      0.000000
      0.00000      2.19473      2.19473         0.000812      0.000060      0.000060
      0.00000      4.38947      4.38947         0.002310      0.000000     -0.000000
      2.19473      6.58420      0.00000        -0.003754      0.002899      0.000000
      2.19473      0.00000      2.19473        -0.003754     -0.000000     -0.002899
      2.19473      2.19473      4.38947        -0.000774      0.001747     -0.000000
      4.38947      6.58420      2.19473        -0.001340      0.000003     -0.000003
      4.38947      0.00000      4.38947         0.001978     -0.000000     -0.000000
      6.58420      4.38947      6.58420        -0.000741      0.000000      0.001750
      0.00000      2.19473      6.58420         0.000812      0.000060     -0.000060
      0.00000      4.38947      0.00000         0.000602     -0.000000      0.000000
      2.19473      0.00000      6.58420        -0.003754      0.000000      0.002899
      2.19473      2.19473      0.00000        -0.003754     -0.002899      0.000000
      2.19473      4.38947      2.19473        -0.000774      0.000000      0.001747
      4.38947      6.58420      6.58420        -0.001340      0.000003      0.000003
      4.38947      0.00000      0.00000        -0.000534      0.000000     -0.000000
      4.38947      2.19473      2.19473        -0.001340     -0.000003     -0.000003
      4.38947      4.38947      4.38947        -0.003700     -0.000000      0.000000
      2.19473      4.38947      6.58420        -0.000774     -0.000000     -0.001747
      4.38947      2.19473      6.58420        -0.001340     -0.000003      0.000003
      4.38947      4.38947      0.00000         0.001978      0.000000      0.000000
    total drift:                                0.008677      0.000000     -0.000021

 mean value of Nose-termostat <S>:     1.000 mean value of <T> :     0.000
 mean temperature <T/S>/<1/S>  :     0.000