 vasp.4.6.28 25Jul05 complex
 executed on             LinuxIFC date 2017.01.24  12:37:11

 INCAR:
 POTCAR:   PAW_PBE Au 06Sep2000
 POTCAR:   PAW_PBE Au 06Sep2000
   VRHFIN =Au: s1d10

   TITEL  = PAW_PBE Au 06Sep2000
   POMASS =  196.966; ZVAL   =   11.000    mass and valenz
   ENMAX  =  229.948; ENMIN  =  172.461 eV
   QCUT   =   -4.111; QGAM   =    8.222    optimization parameters

   Description
     l     E      TYP  RCUT    TYP  RCUT
     2   .000     23  2.500
     2   .000     23  2.500
     0   .000     23  2.500
     0   .000     23  2.500
     1  -.200     23  2.500
     1   .000     23  2.500
     3   .000      7   .000

 PAW_PBE Au 06Sep2000                   :

 POSCAR: No title
  positions in direct lattice

 ion  position               nearest neighbor table
   1  0.750  0.750  0.500-   3 3.09   5 3.09  14 3.09  19 3.09  20 3.09  26 3.09  11 3.09   6 3.09
                            18 3.09  29 3.09  10 3.09   8 3.09
   2  0.750  0.750  0.000-   8 3.09  10 3.09  11 3.09  18 3.09  22 3.09  27 3.09  12 3.09  26 3.09
                             5 3.09  32 3.09   3 3.09  20 3.09
   3  0.750  0.000  0.250-   1 3.09   5 3.09   9 3.09  12 3.09  19 3.09  28 3.09  18 3.09   6 3.09
                            27 3.09  13 3.09   4 3.09   2 3.09
   4  0.750  0.250  0.500-   6 3.09   8 3.09  10 3.09  13 3.09  29 3.09  31 3.09  21 3.09  28 3.09
                            14 3.09  19 3.09   3 3.09  20 3.09
   5  0.000  0.750  0.250-   1 3.09   3 3.09  12 3.09  14 3.09  15 3.09  25 3.09   7 3.09  10 3.09
                            16 3.09   2 3.09  22 3.09   6 3.09
   6  0.000  0.000  0.500-   4 3.09   7 3.09   8 3.09  11 3.09  13 3.09  16 3.09   1 3.09   3 3.09
                            17 3.09  23 3.09  21 3.09   5 3.09
   7  0.250  0.750  0.500-   6 3.09  11 3.09  16 3.09  18 3.09  29 3.09  30 3.09  19 3.09  26 3.09
                             5 3.09  14 3.09  25 3.09  23 3.09
   8  0.750  0.000  0.750-   2 3.09   4 3.09   6 3.09  11 3.09  27 3.09  31 3.09  21 3.09  26 3.09
                            12 3.09  19 3.09   9 3.09   1 3.09
   9  0.750  0.250  0.000-   3 3.09  12 3.09  20 3.09  21 3.09  28 3.09  32 3.09  27 3.09  13 3.09
                            31 3.09  22 3.09  10 3.09   8 3.09
  10  0.750  0.500  0.250-   2 3.09   4 3.09  13 3.09  18 3.09  22 3.09  29 3.09  14 3.09  28 3.09
                             5 3.09  32 3.09   9 3.09   1 3.09
  11  0.000  0.750  0.750-   2 3.09   6 3.09   7 3.09   8 3.09  22 3.09  30 3.09  20 3.09   1 3.09
                            23 3.09  15 3.09  14 3.09  12 3.09
  12  0.000  0.000  0.000-   3 3.09   5 3.09   9 3.09  15 3.09  21 3.09  23 3.09  16 3.09   2 3.09
                             8 3.09  24 3.09  13 3.09  11 3.09
  13  0.000  0.250  0.250-   4 3.09   6 3.09  10 3.09  16 3.09  22 3.09  24 3.09  17 3.09   3 3.09
                             9 3.09  25 3.09  14 3.09  12 3.09
  14  0.000  0.500  0.500-   1 3.09   5 3.09  17 3.09  20 3.09  21 3.09  25 3.09   7 3.09  10 3.09
                             4 3.09  30 3.09  13 3.09  11 3.09
  15  0.250  0.750  0.000-   5 3.09  12 3.09  23 3.09  25 3.09  26 3.09  32 3.09  18 3.09  22 3.09
                            27 3.09  11 3.09  30 3.09  16 3.09
  16  0.250  0.000  0.250-   6 3.09   7 3.09  13 3.09  18 3.09  24 3.09  27 3.09  19 3.09   5 3.09
                            12 3.09  28 3.09  17 3.09  15 3.09
  17  0.250  0.250  0.500-  14 3.09  19 3.09  21 3.09  23 3.09  25 3.09  28 3.09   6 3.09  13 3.09
                            29 3.09  31 3.09  30 3.09  16 3.09
  18  0.500  0.750  0.250-   2 3.09   7 3.09  10 3.09  16 3.09  27 3.09  29 3.09   1 3.09  25 3.09
                             3 3.09  15 3.09  19 3.09  32 3.09
  19  0.500  0.000  0.500-   1 3.09   3 3.09  17 3.09  23 3.09  26 3.09  28 3.09   4 3.09   7 3.09
                             8 3.09  16 3.09  18 3.09  31 3.09
  20  0.750  0.500  0.750-   1 3.09   9 3.09  14 3.09  21 3.09  26 3.09  32 3.09  11 3.09  29 3.09
                            31 3.09  22 3.09   4 3.09   2 3.09
  21  0.000  0.250  0.750-   9 3.09  12 3.09  14 3.09  17 3.09  20 3.09  23 3.09   4 3.09   8 3.09
                            24 3.09  30 3.09  22 3.09   6 3.09
  22  0.000  0.500  0.000-   2 3.09  10 3.09  11 3.09  13 3.09  24 3.09  30 3.09  20 3.09   9 3.09
                            25 3.09  15 3.09  21 3.09   5 3.09
  23  0.250  0.000  0.750-  12 3.09  15 3.09  17 3.09  19 3.09  21 3.09  26 3.09   6 3.09  11 3.09
                            27 3.09  31 3.09  24 3.09   7 3.09
  24  0.250  0.250  0.000-  13 3.09  16 3.09  22 3.09  27 3.09  30 3.09  31 3.09  28 3.09  12 3.09
                            21 3.09  32 3.09  25 3.09  23 3.09
  25  0.250  0.500  0.250-   5 3.09  14 3.09  15 3.09  17 3.09  28 3.09  32 3.09  22 3.09  13 3.09
                            29 3.09  18 3.09  24 3.09   7 3.09
  26  0.500  0.750  0.750-   1 3.09  15 3.09  19 3.09  20 3.09  23 3.09  32 3.09   8 3.09   2 3.09
                            30 3.09   7 3.09  27 3.09  29 3.09
  27  0.500  0.000  0.000-   2 3.09   8 3.09  16 3.09  18 3.09  24 3.09  31 3.09   9 3.09  23 3.09
                            15 3.09   3 3.09  28 3.09  26 3.09
  28  0.500  0.250  0.250-   3 3.09   9 3.09  17 3.09  19 3.09  25 3.09  32 3.09  10 3.09  24 3.09
                            16 3.09   4 3.09  29 3.09  27 3.09
  29  0.500  0.500  0.500-   4 3.09   7 3.09  10 3.09  18 3.09  30 3.09  31 3.09  20 3.09  25 3.09
                            17 3.09   1 3.09  26 3.09  28 3.09
  30  0.250  0.500  0.750-   7 3.09  11 3.09  22 3.09  24 3.09  29 3.09  31 3.09  26 3.09  14 3.09
                            21 3.09  32 3.09  17 3.09  15 3.09
  31  0.500  0.250  0.750-   4 3.09   8 3.09  24 3.09  27 3.09  29 3.09  30 3.09   9 3.09  17 3.09
                            20 3.09  23 3.09  19 3.09  32 3.09
  32  0.500  0.500  0.000-   9 3.09  15 3.09  20 3.09  25 3.09  26 3.09  28 3.09   2 3.09  10 3.09
                            24 3.09  30 3.09  18 3.09  31 3.09

  LATTYP: Found a simple cubic cell.
 ALAT       =     8.7505128200

  Lattice vectors:

 A1 = (   8.7505128200,   0.0000000000,   0.0000000000)
 A2 = (   0.0000001600,   8.7505128200,   0.0000000000)
 A3 = (   0.0000001600,   0.0000001600,   8.7505128200)
 Subroutine PRICEL returns following result:

  LATTYP: Found a face centered cubic cell.
 ALAT       =     4.3752564500

  Lattice vectors:

 A1 = (   2.1876282450,   2.1876282050,   0.0000000000)
 A2 = (   2.1876281650,  -0.0000000400,  -2.1876282050)
 A3 = (  -0.0000000000,   2.1876281650,  -2.1876282050)

  32 primitive cells build up your supercell.

Analysis of symmetry for initial positions (statically):

 Routine SETGRP: Setting up the symmetry group for a
 simple cubic supercell.

 Subroutine GETGRP returns: Found 48 space group operations
 (whereof 48 operations were pure point group operations)
 out of a pool of 48 trial point group operations.

The static configuration has the point symmetry O_h .

Analysis of symmetry for dynamics (positions and initial velocities):

 Subroutine DYNSYM returns: Found 48 space group operations
 (whereof 48 operations were pure point group operations)
 out of a pool of 48 trial space group operations
 (whereof 48 operations were pure point group operations)
 and found also    32 'primitive' translations

The dynamic configuration has the point symmetry O_h .

 KPOINTS: Automatic mesh

Automatic generation of k-mesh.

 Subroutine IBZKPT returns following result:

 Found     20 irreducible k-points:

 Following reciprocal coordinates:
            Coordinates               Weight
  0.062500  0.062500  0.062500      8.000000
  0.187500  0.062500  0.062500     24.000000
  0.312500  0.062500  0.062500     24.000000
  0.437500  0.062500  0.062500     24.000000
  0.187500  0.187500  0.062500     24.000000
  0.312500  0.187500  0.062500     48.000000
  0.437500  0.187500  0.062500     48.000000
  0.312500  0.312500  0.062500     24.000000
  0.437500  0.312500  0.062500     48.000000
  0.437500  0.437500  0.062500     24.000000
  0.187500  0.187500  0.187500      8.000000
  0.312500  0.187500  0.187500     24.000000
  0.437500  0.187500  0.187500     24.000000
  0.312500  0.312500  0.187500     24.000000
  0.437500  0.312500  0.187500     48.000000
  0.437500  0.437500  0.187500     24.000000
  0.312500  0.312500  0.312500      8.000000
  0.437500  0.312500  0.312500     24.000000
  0.437500  0.437500  0.312500     24.000000
  0.437500  0.437500  0.437500      8.000000

 Following cartesian coordinates:
            Coordinates               Weight
  0.007142  0.007142  0.007142      8.000000
  0.021427  0.007142  0.007142     24.000000
  0.035712  0.007142  0.007142     24.000000
  0.049997  0.007142  0.007142     24.000000
  0.021427  0.021427  0.007142     24.000000
  0.035712  0.021427  0.007142     48.000000
  0.049997  0.021427  0.007142     48.000000
  0.035712  0.035712  0.007142     24.000000
  0.049997  0.035712  0.007142     48.000000
  0.049997  0.049997  0.007142     24.000000
  0.021427  0.021427  0.021427      8.000000
  0.035712  0.021427  0.021427     24.000000
  0.049997  0.021427  0.021427     24.000000
  0.035712  0.035712  0.021427     24.000000
  0.049997  0.035712  0.021427     48.000000
  0.049997  0.049997  0.021427     24.000000
  0.035712  0.035712  0.035712      8.000000
  0.049997  0.035712  0.035712     24.000000
  0.049997  0.049997  0.035712     24.000000
  0.049997  0.049997  0.049997      8.000000

 I would recommend the setting:
   dimension x,y,z NGX =    70 NGY =   70 NGZ =   70
 SYSTEM =  No title
 POSCAR =  No title

 Startparameter for this run:
   NWRITE =      2    write-flag & timer
   PREC   = accura    medium, high low
   ISTART =      0    job   : 0-new  1-cont  2-samecut
   ICHARG =      2    charge: 1-file 2-atom 10-const
   ISPIN  =      1    spin polarized calculation?
   LNONCOLLINEAR =      F non collinear calculations
   LSORBIT =      F    spin-orbit coupling
   INIWAV =      1    electr: 0-lowe 1-rand  2-diag
   LASPH  =      F    aspherical Exc in radial PAW
   METAGGA=      F    non-selfconsistent MetaGGA calc.

 Electronic Relaxation 1
   ENCUT  =  600.0 eV  44.10 Ry    6.64 a.u.  17.48 17.48 17.48*2*pi/ulx,y,z
   ENINI  =  600.0     initial cutoff
   ENAUG  =  356.7 eV  augmentation charge cutoff
   NELM   =     60;   NELMIN=  2; NELMDL=-12     # of ELM steps
   EDIFF  = 0.1E-04   stopping-criterion for ELM
   LREAL  =      F    real-space projection
   LCOMPAT=      F    compatible to vasp.4.4
   LREAL_COMPAT= F    compatible to vasp.4.5.1-3
   GGA_COMPAT  = T    GGA compatible to vasp.4.4-vasp.4.6
   LMAXPAW     = -100 max onsite density
   LMAXMIX     =    2 max onsite mixed and CHGCAR
   VOSKOWN=      1    Vosko Wilk Nusair interpolation
   ROPT   =    0.00000
 Ionic relaxation
   EDIFFG = -.2E-01   stopping-criterion for IOM
   NSW    =    100    number of steps for IOM
   NBLOCK =      1;   KBLOCK =    100    inner block; outer block
   IBRION =      2    ionic relax: 0-MD 1-quasi-New 2-CG
   NFREE  =      1    steps in history (QN), initial steepest desc. (CG)
   ISIF   =      2    stress and relaxation
   IWAVPR =     11    prediction:  0-non 1-charg 2-wave 3-comb
[...]
 number of electron  352.0000002 magnetization
 augmentation part   125.0032808 magnetization

 Broyden mixing:
  rms(total) = 0.14909E+01    rms(broyden)= 0.14909E+01
  rms(prec ) = 0.22764E+01
  weight for this iteration     100.00

[...]

 eigenvalues of (default mixing * dielectric matrix)
  average eigenvalue GAMMA=   1.1615
  1.1615

[...]

 Broyden mixing:
  rms(total) = 0.35678E-03    rms(broyden)= 0.35663E-03
  rms(prec ) = 0.47004E-03
  weight for this iteration     100.00

 eigenvalues of (default mixing * dielectric matrix)
  average eigenvalue GAMMA=   1.9012
  2.9518  2.9518  2.3126  0.9745  1.1082  1.1082

[...]

----------------------------------------- Iteration    1(  19)  ---------------------------------------

 eigenvalue-minimisations  :  4770
 total energy-change (2. order) : 0.3957895E-05  (-0.7471925E-06)
 number of electron  352.0000002 magnetization
 augmentation part   130.3306466 magnetization

 Free energy of the ion-electron system (eV)
  alpha Z        PSCENC =      2862.17096503
  Ewald energy   TEWEN  =    -29213.54379886
  -1/2 Hartree   DENC   =     -4513.31572543
  -V(xc)+E(xc)   XCENC  =       455.81032986
  PAW double counting   =     23526.02940573   -22833.78483148
  entropy T*S    EENTRO =        -0.00255806
  eigenvalues    EBANDS =       -17.72745877
  atomic energy  EATOM  =     29633.77399530
  free energy    TOTEN  =      -100.58967668 eV

  energy without entropy =     -100.58711862  energy(sigma->0) =     -100.58882399

 average (electrostatic) potential at core
  the test charge radii are     1.2098
  (the norm of the test charge is              1.0000)
       1 -47.2726       2 -47.2726       3 -47.2726       4 -47.2726       5 -47.2726
       6 -47.2726       7 -47.2726       8 -47.2726       9 -47.2726      10 -47.2726
      11 -47.2726      12 -47.2726      13 -47.2726      14 -47.2726      15 -47.2726
      16 -47.2726      17 -47.2726      18 -47.2726      19 -47.2726      20 -47.2726
      21 -47.2726      22 -47.2726      23 -47.2726      24 -47.2726      25 -47.2726
      26 -47.2726      27 -47.2726      28 -47.2726      29 -47.2726      30 -47.2726
      31 -47.2726      32 -47.2726

 E-fermi :   3.3843     XC(G=0): -11.5163     alpha+bet : -8.2881
   add alpha+bet to get absolut eigen values

 k-point   1 :       0.0625    0.0625    0.0625
  band No.  band energies     occupation
      1      -4.4636      2.00000
      2      -2.6040      2.00000
      3      -2.6040      2.00000
      4      -2.6040      2.00000
      5      -2.3047      2.00000
      6      -2.2844      2.00000
      7      -2.2844      2.00000
      8      -2.2844      2.00000
      9      -2.2558      2.00000
     10      -2.2558      2.00000
     11      -2.2558      2.00000
     12      -2.0403      2.00000
     13      -2.0403      2.00000
     14      -2.0403      2.00000
     15      -1.8332      2.00000
     16      -1.8332      2.00000
     17      -1.8332      2.00000
     18      -1.5317      2.00000
     19      -1.5317      2.00000
     20      -1.5317      2.00000
     21      -1.3725      2.00000
     22      -1.3725      2.00000
     23      -1.3725      2.00000
     24      -1.3725      2.00000
     25      -1.3725      2.00000
     26      -1.3725      2.00000
     27      -1.3027      2.00000
     28      -1.3027      2.00000
     29      -1.3027      2.00000
     30      -1.2342      2.00000
     31      -1.2342      2.00000
     32      -1.2342      2.00000
     33      -1.2308      2.00000
     34      -1.2308      2.00000
     35      -1.2308      2.00000
     36      -1.2308      2.00000
     37      -1.2308      2.00000
     38      -1.2308      2.00000
     39      -1.0942      2.00000
     40      -1.0942      2.00000
     41      -1.0942      2.00000
     42      -0.8130      2.00000
     43      -0.8130      2.00000
     44      -0.8130      2.00000
     45      -0.8130      2.00000
     46      -0.8130      2.00000
     47      -0.8130      2.00000
     48      -0.7433      2.00000
     49      -0.7433      2.00000
     50      -0.7433      2.00000
     51      -0.7227      2.00000
     52      -0.7227      2.00000
     53      -0.7227      2.00000
     54      -0.7227      2.00000
     55      -0.7227      2.00000
     56      -0.7227      2.00000
     57      -0.6650      2.00000
     58      -0.6650      2.00000
     59      -0.6650      2.00000
     60      -0.5304      2.00000
[...]
    198       7.8353     -0.00000
    199       7.8354     -0.00000
    200       8.7665     -0.00000
    201       8.7666     -0.00000
    202       8.7666     -0.00000
    203       8.7671     -0.00000
    204       8.7687     -0.00000
    205       8.7769     -0.00000
    206       9.4682      0.00000
    207       9.4697      0.00000
    208       9.4721      0.00000
    209       9.4770      0.00000
    210       9.5233      0.00000
    211       9.7509      0.00000
    212      10.3472      0.00000

[...]

 k-point  20 :       0.4375    0.4375    0.4375
  band No.  band energies     occupation
      1      -3.2523      2.00000
      2      -3.0366      2.00000
      3      -3.0366      2.00000
      4      -3.0366      2.00000
      5      -2.8561      2.00000
      6      -2.8561      2.00000
      7      -2.8561      2.00000
      8      -2.7203      2.00000
      9      -1.6595      2.00000
     10      -1.6595      2.00000
     11      -1.6595      2.00000
     12      -1.6568      2.00000
     13      -1.6568      2.00000
     14      -1.6568      2.00000
     15      -1.6502      2.00000
     16      -1.6502      2.00000
     17      -1.6502      2.00000
     18      -1.6320      2.00000
     19      -1.6320      2.00000
     20      -1.6320      2.00000
     21      -1.6320      2.00000
     22      -1.6320      2.00000
     23      -1.6320      2.00000
     24      -1.5984      2.00000
     25      -1.5984      2.00000
     26      -1.5984      2.00000
     27      -1.5984      2.00000
     28      -1.5984      2.00000
     29      -1.5984      2.00000
     30      -1.5923      2.00000
     31      -1.5923      2.00000
     32      -1.5923      2.00000
     33      -1.1273      2.00000
     34      -1.1273      2.00000
     35      -1.1273      2.00000
     36      -1.0187      2.00000
     37      -1.0187      2.00000
     38      -1.0187      2.00000
     39      -0.9800      2.00000
     40      -0.9800      2.00000
     41      -0.9800      2.00000
     42      -0.9800      2.00000
     43      -0.9800      2.00000
     44      -0.9800      2.00000
     45      -0.8724      2.00000
     46      -0.8724      2.00000
     47      -0.8724      2.00000
     48      -0.8724      2.00000
     49      -0.8724      2.00000
     50      -0.8724      2.00000
     51      -0.8622      2.00000
     52      -0.8622      2.00000
     53      -0.8622      2.00000
     54      -0.7714      2.00000
     55      -0.7714      2.00000
     56      -0.7714      2.00000
     57      -0.5088      2.00000
     58      -0.4895      2.00000
     59      -0.4895      2.00000
     60      -0.4895      2.00000
[...]
    198       7.6996     -0.00000
    199       8.0132     -0.00000
    200       8.0132     -0.00000
    201       8.0137     -0.00000
    202       8.0190     -0.00000
    203       8.0331     -0.00000
    204       8.0874     -0.00000
    205       8.4318     -0.00000
    206       8.4318     -0.00000
    207       8.4390     -0.00000
    208       8.4851     -0.00000
    209       8.5673     -0.00000
    210       8.6313     -0.00000
    211       8.8312     -0.00000
    212       8.9963      0.00000

 soft charge-density along one line, spin component           1
         0         1         2         3         4         5         6         7         8         9
 total charge-density along one line

------------------------ aborting loop because EDIFF is reached ----------------------------------------

  FREE ENERGIE OF THE ION-ELECTRON SYSTEM (eV)
  free  energy   TOTEN  =      -100.589677 eV

  energy  without entropy=     -100.587119  energy(sigma->0) =     -100.588824

  FORCE on cell =-STRESS in cart. coord.  units (eV/reduce length):
  Direction    X        Y        Z        XY       YZ       ZX
  Alpha Z   2862.17   2862.17   2862.17
  Ewald    -9737.89  -9737.89  -9737.89     -0.00     -0.00     -0.00
  Hartree   1504.44   1504.44   1504.44     -0.00     -0.00     -0.00
  E(xc)    -1574.54  -1574.54  -1574.54     -0.00     -0.00     -0.00
  Local     2321.63   2321.63   2321.63      0.00      0.00      0.00
  n-local  -1693.37  -1688.03  -1675.91      4.69      0.16      3.33
  augment   1377.19   1377.19   1377.19     -0.00     -0.00     -0.00
  Kinetic   4872.48   4878.58   4889.46      1.65     -3.05      0.25
  Total      -52.60    -52.60    -52.60     -0.00     -0.00     -0.00
  in kB     -125.78   -125.78   -125.78     -0.00     -0.00     -0.00

 VOLUME and BASIS-vectors are now :
  energy-cutoff  :      600.00
  volume of cell :      670.04
      direct lattice vectors                 reciprocal lattice vectors
     8.750512820  0.000000000  0.000000000     0.114279017 -0.000000002 -0.000000002
     0.000000160  8.750512820  0.000000000     0.000000000  0.114279017 -0.000000002
     0.000000160  0.000000160  8.750512820     0.000000000  0.000000000  0.114279017

  length of vectors
     8.750512820  8.750512820  8.750512820     0.114279017  0.114279017  0.114279017

 FORCES acting on ions
    electron-ion (+dipol)            ewald-force                    non-local-force                 convergence-correction
   0.486E-12 -.132E-10 0.225E-11   -.844E-13 0.271E-13 0.661E-13   0.855E-22 -.264E-22 -.273E-22   0.731E-13 -.142E-13 -.769E-12
   0.468E-12 -.791E-12 -.225E-12   -.204E-12 -.977E-14 0.665E-14   -.131E-22 -.646E-22 -.993E-23   -.488E-13 -.451E-12 0.103E-11
   0.479E-12 -.542E-13 -.557E-11   -.240E-13 -.333E-13 0.338E-13   -.501E-22 0.361E-22 -.174E-22   -.177E-12 -.388E-12 -.107E-12
   0.485E-12 0.379E-11 0.167E-11   -.182E-13 0.355E-13 -.189E-13   -.692E-22 -.648E-23 0.724E-23   0.213E-13 -.205E-13 -.289E-12
   -.232E-13 0.483E-12 0.158E-12   -.104E-12 0.733E-13 0.111E-12   0.405E-24 0.128E-21 -.662E-23   -.852E-13 -.116E-12 -.248E-12
   -.412E-13 -.397E-13 0.319E-12   -.127E-12 0.504E-13 -.928E-13   -.364E-22 -.209E-22 -.579E-23   0.974E-13 -.191E-12 -.426E-12
   0.125E-12 -.115E-11 0.126E-11   -.173E-13 0.142E-13 0.936E-13   -.649E-22 0.802E-22 0.147E-22   -.675E-13 -.331E-13 -.379E-12
   0.479E-12 0.105E-13 0.226E-11   -.121E-12 0.220E-13 0.195E-13   0.106E-21 -.293E-22 -.869E-23   0.282E-13 0.805E-13 -.224E-12
   0.467E-12 -.872E-11 -.290E-12   -.417E-13 0.488E-13 0.251E-13   0.360E-22 0.214E-22 -.827E-23   -.257E-12 0.444E-12 0.572E-12
   0.474E-12 -.133E-11 0.694E-11   0.231E-13 -.934E-13 -.329E-13   -.922E-23 -.104E-21 0.165E-22   -.492E-13 0.444E-12 -.551E-12
   -.408E-13 0.488E-12 0.435E-12   0.681E-13 0.528E-13 0.355E-13   -.483E-23 0.144E-22 0.153E-22   0.301E-12 -.223E-12 -.362E-13
   -.227E-13 -.451E-13 -.329E-13   -.290E-14 -.176E-13 0.710E-14   0.422E-22 -.556E-22 -.414E-23   0.452E-12 -.957E-13 0.700E-12
   -.167E-13 0.118E-12 0.165E-12   -.508E-13 -.422E-13 -.213E-13   -.390E-22 0.346E-22 0.794E-22   0.274E-12 0.883E-13 -.346E-12
   -.355E-13 0.321E-12 0.314E-12   -.682E-13 -.785E-13 -.416E-13   -.890E-22 0.214E-22 0.248E-22   0.122E-12 0.233E-12 -.329E-12
   0.144E-12 0.212E-11 0.897E-12   -.435E-13 0.364E-13 0.824E-13   -.177E-22 -.112E-22 -.562E-22   0.548E-13 -.883E-13 0.640E-12
   0.132E-12 -.324E-13 -.138E-11   -.173E-13 -.477E-14 -.160E-13   -.410E-22 -.166E-22 0.252E-22   0.189E-12 -.286E-13 -.443E-12
   0.125E-12 0.171E-11 0.124E-11   -.154E-12 -.164E-13 -.970E-14   0.141E-21 -.295E-22 -.414E-23   -.148E-13 0.968E-14 -.292E-12
   0.320E-12 -.336E-11 -.311E-12   0.803E-13 -.124E-13 0.506E-13   -.977E-23 0.537E-22 -.290E-22   0.128E-12 -.230E-14 -.390E-12
   0.337E-12 -.313E-13 -.269E-11   0.190E-12 -.294E-13 0.342E-13   -.633E-22 0.499E-22 0.174E-22   -.583E-13 -.127E-12 -.621E-12
   0.474E-12 -.907E-12 -.101E-10   0.888E-15 -.652E-13 -.258E-13   0.108E-22 0.783E-22 -.827E-24   -.300E-14 -.245E-13 0.231E-12
   -.344E-13 0.111E-12 0.430E-12   0.760E-13 -.591E-13 0.275E-13   0.122E-21 -.231E-22 0.620E-23   0.270E-12 0.196E-12 0.708E-13
   -.174E-13 0.327E-12 -.263E-13   0.458E-13 -.405E-13 -.915E-13   0.566E-23 -.473E-22 -.132E-22   0.848E-13 0.124E-12 0.583E-12
   0.132E-12 -.439E-13 0.214E-11   0.915E-13 0.224E-13 0.178E-14   -.783E-22 0.331E-22 0.505E-22   -.157E-13 0.439E-13 0.158E-12
   0.144E-12 -.148E-11 0.918E-12   0.533E-14 0.240E-13 -.112E-13   -.177E-22 0.810E-22 0.430E-22   0.266E-12 0.615E-13 0.580E-12
   0.137E-12 0.315E-12 0.181E-11   -.151E-13 -.228E-13 -.102E-12   -.131E-21 -.312E-22 0.827E-23   0.641E-13 0.899E-13 -.498E-12
   0.337E-12 0.279E-11 0.485E-11   0.265E-12 0.808E-13 0.302E-13   -.487E-22 -.412E-22 -.168E-22   -.258E-12 -.268E-12 0.669E-13
   0.319E-12 0.129E-14 0.213E-11   0.186E-12 0.206E-13 -.587E-13   0.743E-22 0.264E-22 -.463E-22   -.414E-12 0.135E-12 0.919E-12
   0.314E-12 -.250E-11 -.401E-12   0.181E-12 0.471E-13 -.586E-13   -.435E-22 -.243E-22 -.667E-23   -.233E-12 -.512E-13 -.652E-12
   0.330E-12 -.281E-11 -.252E-11   0.214E-12 -.613E-13 -.664E-13   0.106E-21 -.609E-22 0.569E-23   -.817E-13 0.201E-12 -.370E-12
   0.137E-12 0.325E-12 -.105E-11   0.105E-12 -.955E-13 -.240E-13   -.412E-22 -.118E-23 -.566E-22   0.179E-13 0.163E-13 0.212E-12
   0.331E-12 -.221E-11 -.152E-11   0.213E-12 0.409E-13 -.790E-13   -.318E-23 -.507E-22 -.101E-22   -.227E-12 0.216E-12 0.325E-12
   0.313E-12 -.284E-11 0.183E-11   0.237E-12 -.549E-13 -.632E-13   -.634E-22 -.566E-22 -.141E-22   -.464E-13 -.604E-13 0.635E-12
   0.726E-11 -.287E-10 0.590E-11   0.888E-12 -.141E-12 -.189E-12   -.204E-21 -.422E-22 -.279E-22   0.409E-12 0.200E-12 -.248E-12

 POSITION                                       TOTAL-FORCE (eV/Angst)
      6.56288      6.56288      4.37526        -0.000000      0.000000     -0.000000
      6.56288      6.56288      0.00000         0.000000      0.000000      0.000000
      6.56288      0.00000      2.18763         0.000000      0.000000      0.000000
      6.56288      2.18763      4.37526        -0.000000     -0.000000      0.000000
      0.00000      6.56288      2.18763        -0.000000      0.000000     -0.000000
      0.00000      0.00000      4.37526         0.000000     -0.000000     -0.000000
      2.18763      6.56288      4.37526        -0.000000     -0.000000      0.000000
      6.56288      0.00000      6.56288        -0.000000     -0.000000     -0.000000
      6.56288      2.18763      0.00000        -0.000000      0.000000      0.000000
      6.56288      4.37526      2.18763         0.000000      0.000000      0.000000
      0.00000      6.56288      6.56288        -0.000000     -0.000000      0.000000
      0.00000      0.00000      0.00000         0.000000     -0.000000      0.000000
      0.00000      2.18763      2.18763         0.000000     -0.000000     -0.000000
      0.00000      4.37526      4.37526        -0.000000      0.000000     -0.000000
      2.18763      6.56288      0.00000        -0.000000     -0.000000     -0.000000
      2.18763      0.00000      2.18763         0.000000      0.000000      0.000000
      2.18763      2.18763      4.37526         0.000000     -0.000000     -0.000000
      4.37526      6.56288      2.18763         0.000000     -0.000000     -0.000000
      4.37526      0.00000      4.37526         0.000000     -0.000000      0.000000
      6.56288      4.37526      6.56288        -0.000000      0.000000     -0.000000
      0.00000      2.18763      6.56288        -0.000000     -0.000000      0.000000
      0.00000      4.37526      0.00000         0.000000     -0.000000      0.000000
      2.18763      0.00000      6.56288        -0.000000     -0.000000     -0.000000
      2.18763      2.18763      0.00000         0.000000      0.000000     -0.000000
      2.18763      4.37526      2.18763         0.000000      0.000000      0.000000
      4.37526      6.56288      6.56288        -0.000000     -0.000000     -0.000000
      4.37526      0.00000      0.00000        -0.000000      0.000000     -0.000000
      4.37526      2.18763      2.18763         0.000000      0.000000      0.000000
      4.37526      4.37526      4.37526         0.000000      0.000000     -0.000000
      2.18763      4.37526      6.56288        -0.000000     -0.000000      0.000000
      4.37526      2.18763      6.56288         0.000000     -0.000000      0.000000
      4.37526      4.37526      0.00000        -0.000000     -0.000000      0.000000
    total drift:                                0.000000     -0.000000      0.000000

 reached required accuracy - stopping structural energy minimisation
 writing wavefunctions