 vasp.4.6.28 25Jul05 complex
 executed on             LinuxIFC date 2016.01.16  00:47:43

 INCAR:
 POTCAR:   PAW_PBE Cu 05Jan2001
 POTCAR:   PAW_PBE Cu 05Jan2001
   VRHFIN =Cu: d10 p1

   TITEL  = PAW_PBE Cu 05Jan2001
   POMASS =   63.546; ZVAL   =   11.000    mass and valenz
   ENMAX  =  273.214; ENMIN  =  204.910 eV
   QCUT   =   -4.481; QGAM   =    8.962    optimization parameters

   Description
     l     E      TYP  RCUT    TYP  RCUT
     2   .000     23  2.300
     2   .000     23  2.300
     0   .000     23  2.300
     0   .000     23  2.300
     1  -.200     23  2.300
     1   .000     23  2.300
     3   .000      7   .000

 PAW_PBE Cu 05Jan2001                   :

 POSCAR: Cu
  positions in direct lattice
  velocities in cartesian coordinates

 ion  position               nearest neighbor table
   1  0.250  0.250  0.000-  18 2.57  22 2.57  26 2.57  28 2.57   9 2.57  11 2.57  13 2.57  15 2.57
                            25 2.57  21 2.57  27 2.57  17 2.57
   2  0.750  0.250  0.000-  18 2.57  22 2.57  26 2.57  28 2.57  10 2.57  12 2.57  14 2.57  16 2.57
                            25 2.57  21 2.57  27 2.57  17 2.57
   3  0.250  0.750  0.000-  19 2.57  23 2.57  25 2.57  27 2.57  26 2.57  28 2.57  13 2.57  15 2.57
                             9 2.57  11 2.57  20 2.57  24 2.57
   4  0.750  0.750  0.000-  19 2.57  23 2.57  26 2.57  28 2.57  27 2.57  25 2.57  14 2.57  16 2.57
                            10 2.57  12 2.57  20 2.57  24 2.57
   5  0.250  0.250  0.500-  29 2.57  31 2.57  17 2.57  21 2.57  18 2.57  22 2.57  13 2.57  15 2.57
                             9 2.57  11 2.57  30 2.57  32 2.57
   6  0.750  0.250  0.500-  29 2.57  31 2.57  18 2.57  22 2.57  21 2.57  17 2.57  14 2.57  16 2.57
                            10 2.57  12 2.57  30 2.57  32 2.57
   7  0.250  0.750  0.500-  20 2.57  24 2.57  30 2.57  32 2.57  29 2.57  23 2.57  31 2.57  19 2.57
                             9 2.57  11 2.57  13 2.57  15 2.57
   8  0.750  0.750  0.500-  20 2.57  24 2.57  30 2.57  32 2.57  10 2.57  12 2.57  14 2.57  16 2.57
                            29 2.57  23 2.57  31 2.57  19 2.57
   9  0.250  0.000  0.250-  20 2.57  30 2.57  25 2.57  17 2.57  26 2.57  18 2.57   1 2.57   3 2.57
                             5 2.57   7 2.57  29 2.57  19 2.57
  10  0.750  1.000  0.250-  19 2.57  29 2.57  26 2.57  18 2.57  17 2.57  25 2.57   8 2.57   6 2.57
                             4 2.57   2 2.57  20 2.57  30 2.57
  11  0.250  0.500  0.250-  20 2.57  32 2.57  27 2.57  17 2.57  28 2.57  18 2.57   1 2.57   3 2.57
                             5 2.57   7 2.57  31 2.57  19 2.57
  12  0.750  0.500  0.250-  19 2.57  31 2.57  28 2.57  18 2.57  17 2.57  27 2.57   8 2.57   6 2.57
                             4 2.57   2 2.57  20 2.57  32 2.57
  13  0.250  0.000  0.750-  24 2.57  30 2.57  25 2.57  21 2.57  26 2.57  22 2.57   1 2.57   3 2.57
                             5 2.57   7 2.57  29 2.57  23 2.57
  14  0.750  1.000  0.750-  23 2.57  29 2.57  26 2.57  22 2.57  21 2.57  25 2.57   8 2.57   6 2.57
                             4 2.57   2 2.57  24 2.57  30 2.57
  15  0.250  0.500  0.750-  24 2.57  32 2.57  27 2.57  21 2.57  28 2.57  22 2.57   1 2.57   3 2.57
                             5 2.57   7 2.57  31 2.57  23 2.57
  16  0.750  0.500  0.750-  23 2.57  31 2.57  28 2.57  22 2.57  21 2.57  27 2.57   8 2.57   6 2.57
                             4 2.57   2 2.57  24 2.57  32 2.57
  17  0.000  0.250  0.250-  25 2.57  27 2.57   5 2.57   9 2.57  11 2.57   6 2.57  10 2.57  12 2.57
                             1 2.57   2 2.57  29 2.57  31 2.57
  18  0.500  0.250  0.250-   2 2.57   1 2.57  10 2.57  12 2.57   6 2.57  30 2.57  32 2.57  11 2.57
                             9 2.57   5 2.57  26 2.57  28 2.57
  19  0.000  0.750  0.250-   4 2.57   3 2.57  10 2.57  12 2.57   7 2.57   8 2.57  11 2.57   9 2.57
                            25 2.57  27 2.57  29 2.57  31 2.57
  20  0.500  0.750  0.250-   9 2.57  11 2.57   8 2.57  30 2.57  32 2.57  26 2.57  28 2.57   7 2.57
                            10 2.57  12 2.57   3 2.57   4 2.57
  21  0.000  0.250  0.750-  25 2.57  27 2.57   5 2.57  13 2.57  15 2.57   6 2.57  14 2.57  16 2.57
                             1 2.57   2 2.57  29 2.57  31 2.57
  22  0.500  0.250  0.750-   2 2.57   1 2.57  14 2.57  16 2.57   6 2.57  30 2.57  32 2.57  15 2.57
                            13 2.57   5 2.57  26 2.57  28 2.57
  23  0.000  0.750  0.750-   4 2.57   3 2.57  14 2.57  16 2.57   7 2.57   8 2.57  15 2.57  13 2.57
                            25 2.57  27 2.57  29 2.57  31 2.57
  24  0.500  0.750  0.750-  13 2.57  15 2.57   8 2.57  30 2.57  32 2.57  26 2.57  28 2.57   7 2.57
                            14 2.57  16 2.57   3 2.57   4 2.57
  25  0.000  0.000  0.000-  17 2.57  21 2.57   3 2.57   9 2.57  13 2.57   4 2.57  10 2.57  14 2.57
                             1 2.57   2 2.57  19 2.57  23 2.57
  26  0.500  1.000  0.000-   2 2.57   1 2.57  10 2.57  14 2.57   4 2.57  20 2.57  24 2.57  13 2.57
                             9 2.57   3 2.57  22 2.57  18 2.57
  27  0.000  0.500  0.000-  17 2.57  21 2.57   3 2.57  11 2.57  15 2.57   4 2.57  12 2.57  16 2.57
                             1 2.57   2 2.57  19 2.57  23 2.57
  28  0.500  0.500  0.000-   2 2.57   1 2.57  12 2.57  16 2.57   4 2.57  20 2.57  24 2.57  15 2.57
                            11 2.57   3 2.57  22 2.57  18 2.57
  29  0.000  0.000  0.500-   6 2.57   5 2.57  10 2.57  14 2.57   7 2.57   8 2.57  13 2.57   9 2.57
                            17 2.57  21 2.57  19 2.57  23 2.57
  30  0.500  1.000  0.500-   9 2.57  13 2.57   8 2.57  20 2.57  24 2.57  22 2.57  18 2.57   7 2.57
                            10 2.57  14 2.57   5 2.57   6 2.57
  31  0.000  0.500  0.500-   6 2.57   5 2.57  12 2.57  16 2.57   7 2.57   8 2.57  15 2.57  11 2.57
                            17 2.57  21 2.57  19 2.57  23 2.57
  32  0.500  0.500  0.500-  11 2.57  15 2.57   8 2.57  20 2.57  24 2.57  22 2.57  18 2.57   7 2.57
                            12 2.57  16 2.57   5 2.57   6 2.57

  LATTYP: Found a simple tetragonal cell.
 ALAT       =     7.2726965831
 C/A-ratio  =     0.9999860433

  Lattice vectors:

 A1 = (   0.0000000000,   7.2726965831,   0.0000000000)
 A2 = (   0.0000000000,   0.0000000000,  -7.2726965831)
 A3 = (  -7.2725950804,   0.0000000000,   0.0000000000)
 Subroutine PRICEL returns:
 Original cell was already a primitive cell.

Analysis of symmetry for initial positions (statically):

 Routine SETGRP: Setting up the symmetry group for a
 simple tetragonal supercell.

 Subroutine GETGRP returns: Found  2 space group operations
 (whereof  2 operations were pure point group operations)
 out of a pool of 16 trial point group operations.

The static configuration has the point symmetry C_1h.

Analysis of symmetry for dynamics (positions and initial velocities):

 Subroutine DYNSYM returns: Found  2 space group operations
 (whereof  2 operations were pure point group operations)
 out of a pool of  2 trial space group operations
 (whereof  2 operations were pure point group operations)
 and found also     1 'primitive' translations

The dynamic configuration has the point symmetry C_1h.

 KPOINTS: Automatic mesh

Automatic generation of k-mesh.
 generate k-points for:   7   7   7

 Subroutine IBZKPT returns following result:

 Found    100 irreducible k-points:

 Following reciprocal coordinates:
            Coordinates               Weight
  0.000000  0.000000  0.000000      1.000000
  0.142857  0.000000  0.000000      2.000000
  0.285714  0.000000  0.000000      2.000000
  0.428571  0.000000  0.000000      2.000000
  0.000000  0.142857  0.000000      2.000000
  0.142857  0.142857  0.000000      2.000000
  0.285714  0.142857  0.000000      2.000000
  0.428571  0.142857  0.000000      2.000000
 -0.428571  0.142857  0.000000      2.000000
 -0.285714  0.142857  0.000000      2.000000
 -0.142857  0.142857  0.000000      2.000000
  0.000000  0.285714  0.000000      2.000000
  0.142857  0.285714  0.000000      2.000000
  0.285714  0.285714  0.000000      2.000000
  0.428571  0.285714  0.000000      2.000000
 -0.428571  0.285714  0.000000      2.000000
 -0.285714  0.285714  0.000000      2.000000
 -0.142857  0.285714  0.000000      2.000000
  0.000000  0.428571  0.000000      2.000000
  0.142857  0.428571  0.000000      2.000000
  0.285714  0.428571  0.000000      2.000000
  0.428571  0.428571  0.000000      2.000000
 -0.428571  0.428571  0.000000      2.000000
 -0.285714  0.428571  0.000000      2.000000
 -0.142857  0.428571  0.000000      2.000000
  0.000000  0.000000  0.142857      2.000000
  0.142857  0.000000  0.142857      4.000000
  0.285714  0.000000  0.142857      4.000000
  0.428571  0.000000  0.142857      4.000000
  0.000000  0.142857  0.142857      4.000000
  0.142857  0.142857  0.142857      4.000000
  0.285714  0.142857  0.142857      4.000000
  0.428571  0.142857  0.142857      4.000000
 -0.428571  0.142857  0.142857      4.000000
 -0.285714  0.142857  0.142857      4.000000
 -0.142857  0.142857  0.142857      4.000000
  0.000000  0.285714  0.142857      4.000000
  0.142857  0.285714  0.142857      4.000000
  0.285714  0.285714  0.142857      4.000000
  0.428571  0.285714  0.142857      4.000000
 -0.428571  0.285714  0.142857      4.000000
 -0.285714  0.285714  0.142857      4.000000
 -0.142857  0.285714  0.142857      4.000000
  0.000000  0.428571  0.142857      4.000000
  0.142857  0.428571  0.142857      4.000000
  0.285714  0.428571  0.142857      4.000000
  0.428571  0.428571  0.142857      4.000000
 -0.428571  0.428571  0.142857      4.000000
 -0.285714  0.428571  0.142857      4.000000
 -0.142857  0.428571  0.142857      4.000000
  0.000000  0.000000  0.285714      2.000000
  0.142857  0.000000  0.285714      4.000000
  0.285714  0.000000  0.285714      4.000000
  0.428571  0.000000  0.285714      4.000000
  0.000000  0.142857  0.285714      4.000000
  0.142857  0.142857  0.285714      4.000000
  0.285714  0.142857  0.285714      4.000000
  0.428571  0.142857  0.285714      4.000000
 -0.428571  0.142857  0.285714      4.000000
 -0.285714  0.142857  0.285714      4.000000
[...]
 -0.142857  0.142857  0.428571      4.000000
  0.000000  0.285714  0.428571      4.000000
  0.142857  0.285714  0.428571      4.000000
  0.285714  0.285714  0.428571      4.000000
  0.428571  0.285714  0.428571      4.000000
 -0.428571  0.285714  0.428571      4.000000
 -0.285714  0.285714  0.428571      4.000000
 -0.142857  0.285714  0.428571      4.000000
  0.000000  0.428571  0.428571      4.000000
  0.142857  0.428571  0.428571      4.000000
  0.285714  0.428571  0.428571      4.000000
  0.428571  0.428571  0.428571      4.000000
 -0.428571  0.428571  0.428571      4.000000
 -0.285714  0.428571  0.428571      4.000000
 -0.142857  0.428571  0.428571      4.000000

 Following cartesian coordinates:
            Coordinates               Weight
  0.000000  0.000000  0.000000      1.000000
  0.019643  0.000000  0.000000      2.000000
  0.039286  0.000000  0.000000      2.000000
  0.058930  0.000000  0.000000      2.000000
  0.000000  0.019643  0.000000      2.000000
  0.019643  0.019643  0.000000      2.000000
  0.039286  0.019643  0.000000      2.000000
[...]
      0.00030      3.63629      0.00000        -0.000091      0.000164      0.000000
      3.63660      3.63641      0.00000        -0.000094     -0.000164      0.000000
      0.00026      0.00003      3.63635         0.000135     -0.000203      0.000000
      3.63655      7.27267      3.63635         0.000136      0.000201      0.000000
      0.00026      3.63632      3.63635         0.000136      0.000203      0.000000
      3.63655      3.63637      3.63635         0.000135     -0.000201      0.000000
    total drift:                               -0.000345     -0.000000     -0.000000

[...]

 eigenvalue-minimisations  : 23024
 total energy-change (2. order) :-0.1047738E-08  ( 0.7432370E-10)
 number of electron  351.9999998 magnetization
 augmentation part   230.1598277 magnetization

[...]

 d Force = 0.5060231E-07[ 0.412E-07, 0.600E-07]  d Energy = 0.1133296E-05-0.108E-05
 d Force = 0.3008471E-05[ 0.216E-05, 0.386E-05]  d Ewald  = 0.8973608E+00-0.897E+00

[...]

 Steepest descent step on ions:
 trial-energy change:   -0.000001  1 .order   -0.000000   -0.000001    0.000001
  (g-gl).g = 0.136E-05      g.g   = 0.136E-05  gl.gl    = 0.000E+00
 g(Force)  = 0.600E-07   g(Stress)= 0.130E-05 ortho     = 0.000E+00
 gamma     =   0.00000
 trial     =   1.00000
 opt step  =   0.89847  (harmonic =   0.68776) maximal distance =0.00001123
 next E    =  -119.038621   (d E  =  -0.00000)

[...]

 d Force =-0.4552173E-08[-0.492E-08,-0.418E-08]  d Energy =-0.5971378E-07 0.552E-07
 d Force =-0.2280508E-06[-0.237E-06,-0.219E-06]  d Ewald  =-0.9110761E-01 0.911E-01

[...]

 eigenvalue-minimisations  : 22920
 total energy-change (2. order) : 0.2233719E-08  ( 0.8408220E-10)
 number of electron  351.9999998 magnetization
 augmentation part   230.1601782 magnetization

[...]

 d Force = 0.3368415E-07[ 0.268E-07, 0.405E-07]  d Energy =-0.2985034E-06 0.332E-06
 d Force = 0.1386652E-05[ 0.108E-05, 0.170E-05]  d Ewald  =-0.4436304E+00 0.444E+00

[...]

 Steepest descent step on ions:
 trial-energy change:    0.000000  1 .order   -0.000000   -0.000000    0.000000
  (g-gl).g = 0.978E-06      g.g   = 0.377E-06  gl.gl    = 0.136E-05
 g(Force)  = 0.414E-07   g(Stress)= 0.336E-06 ortho     =-0.601E-06
 gamma     =   0.00000
 trial     =   0.97969
 opt step  =   0.61777  (harmonic =   0.61777) maximal distance =0.00000714
 next E    =  -119.038621   (d E  =  -0.00000)

[...]

 eigenvalue-minimisations  : 23760
 total energy-change (2. order) :-0.6080518E-07  (-0.7627778E-09)
 number of electron  351.9999998 magnetization
 augmentation part   230.1600255 magnetization

[...]

 eigenvalue-minimisations  : 22912
 total energy-change (2. order) : 0.1152512E-07  (-0.4098744E-11)
 number of electron  351.9999998 magnetization
 augmentation part   230.1600791 magnetization

[...]

 Broyden mixing:
  rms(total) = 0.49199E-05    rms(broyden)= 0.49167E-05
  rms(prec ) = 0.73351E-05
  weight for this iteration     100.00

 eigenvalues of (default mixing * dielectric matrix)
  average eigenvalue GAMMA=   1.2071
  2.6684  2.5782  0.9559  0.9559  0.6607  0.3764  0.2538

[...]

----------------------------------------- Iteration    5(   9)  ---------------------------------------

 eigenvalue-minimisations  : 22816
 total energy-change (2. order) : 0.1746230E-08  ( 0.9280124E-10)
 number of electron  351.9999998 magnetization
 augmentation part   230.1600681 magnetization

 Free energy of the ion-electron system (eV)
  alpha Z        PSCENC =      3401.28119217
  Ewald energy   TEWEN  =    -35150.44316781
  -1/2 Hartree   DENC   =     -9844.55136598
  -V(xc)+E(xc)   XCENC  =      1368.73495805
  PAW double counting   =     35062.18627419   -39692.67042418
  entropy T*S    EENTRO =        -0.00104249
  eigenvalues    EBANDS =       225.16639026
  atomic energy  EATOM  =     44511.25856501
  free energy    TOTEN  =      -119.03862078 eV

  energy without entropy =     -119.03757829  energy(sigma->0) =     -119.03809953

 average (electrostatic) potential at core
  the test charge radii are     1.0053
  (the norm of the test charge is              1.0000)
       1 -40.0412       2 -40.0412       3 -40.0412       4 -40.0412       5 -40.0412
       6 -40.0412       7 -40.0412       8 -40.0412       9 -40.0412      10 -40.0412
      11 -40.0412      12 -40.0412      13 -40.0412      14 -40.0412      15 -40.0412
      16 -40.0412      17 -40.0412      18 -40.0412      19 -40.0412      20 -40.0412
      21 -40.0412      22 -40.0412      23 -40.0412      24 -40.0412      25 -40.0412
      26 -40.0412      27 -40.0412      28 -40.0412      29 -40.0412      30 -40.0412
      31 -40.0412      32 -40.0412

 E-fermi :   3.6400     XC(G=0): -12.6979     alpha+bet : -9.4626
   add alpha+bet to get absolut eigen values

[...]

 k-point 100 :      -0.1429    0.4286    0.4286
  band No.  band energies     occupation
      1      -4.4408      2.00000
      2      -4.0425      2.00000
      3      -4.0425      2.00000
      4      -3.6574      2.00000
      5      -2.6254      2.00000
      6      -2.3439      2.00000
      7      -2.3439      2.00000
      8      -2.1184      2.00000
      9      -1.5519      2.00000
     10      -1.3945      2.00000
     11      -1.3945      2.00000
     12      -1.3182      2.00000
     13      -1.0210      2.00000
     14      -1.0210      2.00000
     15      -0.9065      2.00000
     16      -0.9065      2.00000
     17      -0.8220      2.00000
     18      -0.8220      2.00000
     19      -0.7696      2.00000
     20      -0.7696      2.00000
     21      -0.7262      2.00000
     22      -0.7262      2.00000
     23      -0.7083      2.00000
     24      -0.6423      2.00000
     25      -0.6423      2.00000
     26      -0.5887      2.00000
     27      -0.5887      2.00000
     28      -0.5765      2.00000
     29      -0.5765      2.00000
     30      -0.4759      2.00000
     31      -0.4688      2.00000
     32      -0.4688      2.00000
     33      -0.4254      2.00000
     34      -0.4204      2.00000
     35      -0.4204      2.00000
     36      -0.3394      2.00000
     37      -0.3394      2.00000
     38      -0.3303      2.00000
     39      -0.3303      2.00000
     40      -0.3169      2.00000
     41      -0.3169      2.00000
     42      -0.2683      2.00000
     43      -0.2350      2.00000
     44      -0.2350      2.00000
     45      -0.0557      2.00000
     46      -0.0557      2.00000
     47       0.0369      2.00000
     48       0.0564      2.00000
     49       0.0564      2.00000
     50       0.0818      2.00000
     51       0.0818      2.00000
     52       0.1681      2.00000
     53       0.1681      2.00000
     54       0.1892      2.00000
     55       0.1892      2.00000
     56       0.2474      2.00000
     57       0.3173      2.00000
     58       0.3279      2.00000
     59       0.3403      2.00000
     60       0.3403      2.00000
[...]
    202       9.4864      0.00000
    203       9.4864      0.00000
    204      10.5787      0.00000
    205      10.6713      0.00000
    206      11.7881      0.00000
    207      11.7882      0.00000
    208      11.7934      0.00000
    209      12.0442      0.00000
    210      12.0442      0.00000
    211      12.2796      0.00000
    212      12.3272      0.00000
    213      12.6163      0.00000
    214      12.6164      0.00000
    215      12.9212      0.00000
    216      13.0892      0.00000

 soft charge-density along one line, spin component           1
         0         1         2         3         4         5         6         7         8         9
 total charge-density along one line

------------------------ aborting loop because EDIFF is reached ----------------------------------------

 d Force =-0.1078795E-07[-0.117E-07,-0.992E-08]  d Energy = 0.1776425E-06-0.188E-06
 d Force =-0.4396896E-06[-0.482E-06,-0.397E-06]  d Ewald  = 0.1638892E+00-0.164E+00

  FREE ENERGIE OF THE ION-ELECTRON SYSTEM (eV)
  free  energy   TOTEN  =      -119.038621 eV

  energy  without entropy=     -119.037578  energy(sigma->0) =     -119.038100

  FORCE on cell =-STRESS in cart. coord.  units (eV/reduce length):
  Direction    X        Y        Z        XY       YZ       ZX
  Alpha Z   3401.28   3401.28   3401.28
  Ewald   -11716.84 -11716.87 -11716.87      0.00      0.00     -0.00
  Hartree   3281.52   3281.52   3281.52      0.00     -0.00     -0.00
  E(xc)    -2004.38  -2004.38  -2004.38      0.00      0.00     -0.00
  Local     3887.07   3887.10   3887.11     -0.00      0.00      0.00
  n-local  -1171.73  -1171.73  -1171.73      0.00      1.01      0.06
  augment   1809.19   1809.19   1809.19     -0.00     -0.00     -0.00
  Kinetic   2513.88   2513.89   2513.89     -0.00     -1.10     -0.18
  Total       -0.00     -0.00     -0.00     -0.00      0.00      0.00
  in kB       -0.02     -0.01     -0.01     -0.00      0.00      0.00

 VOLUME and BASIS-vectors are now :
  energy-cutoff  :      500.00
  volume of cell :      384.65
      direct lattice vectors                 reciprocal lattice vectors
     7.272463015 -0.000001171  0.000000000     0.137504996  0.000000022  0.000000000
    -0.000001147  7.272596513  0.000000000     0.000000022  0.137502472  0.000000000
     0.000000000  0.000000000  7.272601914     0.000000000  0.000000000  0.137502370

  length of vectors
     7.272463015  7.272596513  7.272601914     0.137504996  0.137502472  0.137502370

 FORCES acting on ions
    electron-ion (+dipol)            ewald-force                    non-local-force                 convergence-correction
   0.242E-03 0.267E-04 0.465E-07   -.545E-03 -.270E-04 -.759E-13   0.439E-04 -.781E-07 0.000E+00   -.510E-05 0.147E-06 -.594E-12
   -.127E-02 -.273E-04 -.469E-07   0.147E-02 0.275E-04 0.877E-13   -.209E-04 0.104E-07 0.000E+00   0.256E-05 -.580E-07 0.336E-12
   -.615E-02 -.280E-04 -.231E-07   0.631E-02 0.283E-04 0.111E-12   -.391E-04 0.825E-07 0.000E+00   0.421E-05 -.139E-06 -.799E-12
   0.925E-02 0.275E-04 0.225E-07   -.940E-02 -.278E-04 -.131E-14   -.360E-04 -.403E-08 0.000E+00   -.364E-05 0.617E-07 0.612E-14
   -.622E-02 0.720E-05 -.229E-07   0.639E-02 -.702E-05 -.641E-14   -.386E-04 -.186E-07 0.000E+00   0.995E-06 -.239E-06 0.349E-12
   0.933E-02 -.468E-04 0.227E-07   -.948E-02 0.475E-04 0.503E-13   -.365E-04 0.499E-07 0.000E+00   -.471E-06 -.436E-06 -.342E-12
   0.184E-02 -.711E-05 -.854E-08   -.179E-02 0.694E-05 0.454E-13   0.305E-04 0.249E-07 0.000E+00   0.684E-05 0.249E-06 0.621E-12
   -.784E-02 0.483E-04 0.848E-08   0.791E-02 -.490E-04 -.856E-13   0.152E-04 -.775E-07 0.000E+00   -.497E-05 0.444E-06 0.167E-12
   0.366E-03 0.532E-05 0.313E-04   -.374E-03 -.723E-05 -.295E-04   -.301E-04 -.247E-06 0.140E-06   0.197E-05 0.105E-05 -.125E-05
   0.165E-02 -.883E-04 -.451E-05   -.166E-02 0.890E-04 0.561E-05   -.423E-05 -.180E-06 0.308E-06   -.156E-05 0.621E-06 -.205E-05
   0.314E-03 -.527E-05 0.110E-04   -.322E-03 0.719E-05 -.873E-05   -.301E-04 0.260E-06 0.183E-06   0.220E-05 -.106E-05 -.164E-05
   0.170E-02 0.874E-04 -.248E-04   -.172E-02 -.882E-04 0.264E-04   -.424E-05 0.189E-06 0.376E-06   -.179E-05 -.630E-06 -.243E-05
   0.366E-03 0.532E-05 -.313E-04   -.374E-03 -.723E-05 0.295E-04   -.301E-04 -.247E-06 -.140E-06   0.197E-05 0.105E-05 0.125E-05
   0.165E-02 -.883E-04 0.451E-05   -.166E-02 0.890E-04 -.561E-05   -.423E-05 -.180E-06 -.308E-06   -.156E-05 0.621E-06 0.205E-05
   0.314E-03 -.527E-05 -.110E-04   -.322E-03 0.719E-05 0.873E-05   -.301E-04 0.260E-06 -.183E-06   0.220E-05 -.106E-05 0.164E-05
   0.170E-02 0.874E-04 0.248E-04   -.172E-02 -.882E-04 -.264E-04   -.424E-05 0.189E-06 -.376E-06   -.179E-05 -.630E-06 0.243E-05
   0.308E-02 0.158E-04 -.476E-02   -.311E-02 -.157E-04 0.492E-02   -.439E-04 -.176E-07 -.740E-05   0.520E-06 -.260E-06 -.536E-06
   0.316E-02 -.363E-04 0.487E-02   -.319E-02 0.366E-04 -.503E-02   -.437E-04 0.194E-08 0.732E-05   -.367E-06 -.347E-07 -.109E-05
   -.405E-02 -.154E-04 -.647E-02   0.409E-02 0.153E-04 0.654E-02   0.252E-04 0.132E-07 0.118E-04   -.354E-06 0.268E-06 -.387E-05
   -.400E-02 0.367E-04 0.644E-02   0.404E-02 -.370E-04 -.650E-02   0.251E-04 -.115E-07 -.115E-04   -.361E-06 0.396E-07 -.175E-05
   0.308E-02 0.158E-04 0.476E-02   -.311E-02 -.157E-04 -.492E-02   -.439E-04 -.176E-07 0.740E-05   0.520E-06 -.260E-06 0.536E-06
   0.316E-02 -.363E-04 -.487E-02   -.319E-02 0.366E-04 0.503E-02   -.437E-04 0.194E-08 -.732E-05   -.367E-06 -.347E-07 0.109E-05
   -.405E-02 -.154E-04 0.647E-02   0.409E-02 0.153E-04 -.654E-02   0.252E-04 0.132E-07 -.118E-04   -.354E-06 0.268E-06 0.387E-05
   -.400E-02 0.367E-04 -.644E-02   0.404E-02 -.370E-04 0.650E-02   0.251E-04 -.115E-07 0.115E-04   -.361E-06 0.396E-07 0.175E-05
   0.299E-02 0.476E-02 0.254E-07   -.302E-02 -.492E-02 0.484E-13   -.438E-04 0.713E-05 0.000E+00   -.166E-06 0.127E-05 -.290E-12
   0.325E-02 -.495E-02 -.260E-07   -.329E-02 0.511E-02 0.431E-13   -.439E-04 -.702E-05 0.000E+00   0.362E-06 -.158E-05 -.934E-12
   0.304E-02 -.476E-02 -.263E-07   -.308E-02 0.492E-02 -.682E-13   -.439E-04 -.716E-05 0.000E+00   0.346E-07 -.127E-05 0.611E-13
   0.320E-02 0.495E-02 0.259E-07   -.323E-02 -.511E-02 0.988E-14   -.438E-04 0.703E-05 0.000E+00   0.160E-06 0.158E-05 0.850E-13
   -.401E-02 0.647E-02 0.738E-08   0.405E-02 -.654E-02 0.459E-13   0.252E-04 -.121E-04 0.000E+00   0.193E-06 0.448E-05 0.299E-12
   -.403E-02 -.651E-02 -.746E-08   0.408E-02 0.658E-02 -.366E-13   0.254E-04 0.119E-04 0.000E+00   -.852E-06 -.850E-06 0.898E-12
   -.396E-02 -.647E-02 -.704E-08   0.399E-02 0.654E-02 -.159E-12   0.252E-04 0.122E-04 0.000E+00   0.389E-06 -.448E-05 -.772E-13
   -.409E-02 0.651E-02 0.703E-08   0.413E-02 -.658E-02 0.121E-12   0.255E-04 -.120E-04 0.000E+00   -.105E-05 0.842E-06 -.981E-13
   0.227E-04 -.516E-09 -.445E-08   0.108E-12 0.146E-12 -.279E-12   -.368E-03 -.752E-08 0.000E+00   0.132E-07 0.620E-08 -.240E-11

 POSITION                                       TOTAL-FORCE (eV/Angst)
      1.81850      1.81815      0.00000        -0.000253     -0.000000      0.000000
      5.45456      1.81815      0.00000         0.000196      0.000000      0.000000
      1.81836      5.45445      0.00000         0.000137      0.000000      0.000000
      5.45467      5.45445      0.00000        -0.000173     -0.000000      0.000000
      1.81836      1.81815      3.63630         0.000137     -0.000000      0.000000
      5.45467      1.81815      3.63630        -0.000174      0.000000      0.000000
      1.81835      5.45445      3.63630         0.000101      0.000000      0.000000
      5.45461      5.45445      3.63630         0.000091     -0.000000      0.000000
      1.81840      0.00000      1.81815        -0.000025     -0.000001      0.000001
      5.45463      7.27260      1.81815        -0.000010      0.000001     -0.000001
      1.81840      3.63630      1.81815        -0.000025      0.000001      0.000001
      5.45463      3.63630      1.81815        -0.000011     -0.000001     -0.000000
      1.81840      0.00000      5.45445        -0.000025     -0.000001     -0.000001
      5.45463      7.27260      5.45445        -0.000010      0.000001      0.000001
      1.81840      3.63630      5.45445        -0.000025      0.000001     -0.000001
      5.45463      3.63630      5.45445        -0.000011     -0.000001      0.000000
      0.00030      1.81815      1.81810        -0.000065     -0.000000      0.000150
      3.63653      1.81815      1.81820        -0.000067      0.000000     -0.000151
      0.00026      5.45445      1.81814         0.000075      0.000000      0.000076
      3.63649      5.45445      1.81816         0.000077     -0.000000     -0.000076
      0.00030      1.81815      5.45450        -0.000065     -0.000000     -0.000150
      3.63653      1.81815      5.45440        -0.000067      0.000000      0.000151
      0.00026      5.45445      5.45446         0.000075      0.000000     -0.000076
      3.63649      5.45445      5.45444         0.000077     -0.000000      0.000076
      0.00030      0.00005      0.00000        -0.000064     -0.000150      0.000000
      3.63653      7.27255      0.00000        -0.000068      0.000151      0.000000
      0.00030      3.63625      0.00000        -0.000065      0.000150      0.000000
      3.63653      3.63635      0.00000        -0.000067     -0.000151      0.000000
      0.00026      0.00001      3.63630         0.000075     -0.000077      0.000000
      3.63649      7.27258      3.63630         0.000077      0.000077      0.000000
      0.00026      3.63628      3.63630         0.000075      0.000077      0.000000
      3.63649      3.63631      3.63630         0.000078     -0.000077      0.000000
    total drift:                               -0.000345     -0.000000     -0.000000

 reached required accuracy - stopping structural energy minimisation