 vasp.4.6.28 25Jul05 complex
 executed on             LinuxIFC date 2016.12.21  11:35:40

 INCAR:
 POTCAR:   PAW_PBE Cu 05Jan2001
 POTCAR:   PAW_PBE Cu 05Jan2001
   VRHFIN =Cu: d10 p1

   TITEL  = PAW_PBE Cu 05Jan2001
   POMASS =   63.546; ZVAL   =   11.000    mass and valenz
   ENMAX  =  273.214; ENMIN  =  204.910 eV
   QCUT   =   -4.481; QGAM   =    8.962    optimization parameters

   Description
     l     E      TYP  RCUT    TYP  RCUT
     2   .000     23  2.300
     2   .000     23  2.300
     0   .000     23  2.300
     0   .000     23  2.300
     1  -.200     23  2.300
     1   .000     23  2.300
     3   .000      7   .000

 PAW_PBE Cu 05Jan2001                   :

 POSCAR: Cu
  positions in direct lattice
  velocities in cartesian coordinates

 ion  position               nearest neighbor table
   1  0.000  0.000  0.000-   2 2.47   3 2.47   4 2.47   3 2.47   4 2.47   2 2.47   4 2.47   4 2.47
                             2 2.47   3 2.47   3 2.47   2 2.47
   2  0.500  0.500  0.000-   1 2.47   3 2.47   4 2.47   3 2.47   4 2.47   1 2.47   3 2.47   3 2.47
                             1 2.47   4 2.47   4 2.47   1 2.47
   3  0.500  0.000  0.500-   1 2.47   2 2.47   4 2.47   1 2.47   2 2.47   2 2.47   4 2.47   2 2.47
                             1 2.47   4 2.47   1 2.47   4 2.47
   4  0.000  0.500  0.500-   1 2.47   2 2.47   3 2.47   1 2.47   2 2.47   1 2.47   3 2.47   1 2.47
                             2 2.47   3 2.47   2 2.47   3 2.47

  LATTYP: Found a simple cubic cell.
 ALAT       =     3.4909591793

  Lattice vectors:

 A1 = (   3.4909591793,   0.0000000000,   0.0000000000)
 A2 = (   0.0000000000,   3.4909591793,   0.0000000000)
 A3 = (   0.0000000000,   0.0000000000,   3.4909591793)
 Subroutine PRICEL returns following result:

  LATTYP: Found a face centered cubic cell.
 ALAT       =     3.4909591793

  Lattice vectors:

 A1 = (   1.7454795896,   1.7454795896,  -0.0000000000)
 A2 = (   1.7454795896,   0.0000000000,  -1.7454795896)
 A3 = (   0.0000000000,   1.7454795896,  -1.7454795896)

   4 primitive cells build up your supercell.

Analysis of symmetry for initial positions (statically):

 Routine SETGRP: Setting up the symmetry group for a
 simple cubic supercell.

 Subroutine GETGRP returns: Found 48 space group operations
 (whereof 48 operations were pure point group operations)
 out of a pool of 48 trial point group operations.

The static configuration has the point symmetry O_h .

Analysis of symmetry for dynamics (positions and initial velocities):

 Subroutine DYNSYM returns: Found 48 space group operations
 (whereof 48 operations were pure point group operations)
 out of a pool of 48 trial space group operations
 (whereof 48 operations were pure point group operations)
 and found also     4 'primitive' translations

The dynamic configuration has the point symmetry O_h .

 KPOINTS: Automatic mesh

Automatic generation of k-mesh.

 Subroutine IBZKPT returns following result:

 Found     84 irreducible k-points:

 Following reciprocal coordinates:
            Coordinates               Weight
  0.000000  0.000000  0.000000      1.000000
  0.083333  0.000000  0.000000      6.000000
  0.166667  0.000000  0.000000      6.000000
  0.250000  0.000000  0.000000      6.000000
  0.333333  0.000000  0.000000      6.000000
  0.416667  0.000000  0.000000      6.000000
  0.500000  0.000000  0.000000      3.000000
  0.083333  0.083333  0.000000     12.000000
  0.166667  0.083333  0.000000     24.000000
  0.250000  0.083333  0.000000     24.000000
  0.333333  0.083333  0.000000     24.000000
  0.416667  0.083333  0.000000     24.000000
  0.500000  0.083333  0.000000     12.000000
  0.166667  0.166667  0.000000     12.000000
  0.250000  0.166667  0.000000     24.000000
  0.333333  0.166667  0.000000     24.000000
  0.416667  0.166667  0.000000     24.000000
  0.500000  0.166667  0.000000     12.000000
  0.250000  0.250000  0.000000     12.000000
  0.333333  0.250000  0.000000     24.000000
  0.416667  0.250000  0.000000     24.000000
  0.500000  0.250000  0.000000     12.000000
  0.333333  0.333333  0.000000     12.000000
  0.416667  0.333333  0.000000     24.000000
  0.500000  0.333333  0.000000     12.000000
  0.416667  0.416667  0.000000     12.000000
  0.500000  0.416667  0.000000     12.000000
  0.500000  0.500000  0.000000      3.000000
  0.083333  0.083333  0.083333      8.000000
  0.166667  0.083333  0.083333     24.000000
  0.250000  0.083333  0.083333     24.000000
  0.333333  0.083333  0.083333     24.000000
  0.416667  0.083333  0.083333     24.000000
  0.500000  0.083333  0.083333     12.000000
  0.166667  0.166667  0.083333     24.000000
  0.250000  0.166667  0.083333     48.000000
  0.333333  0.166667  0.083333     48.000000
  0.416667  0.166667  0.083333     48.000000
  0.500000  0.166667  0.083333     24.000000
  0.250000  0.250000  0.083333     24.000000
  0.333333  0.250000  0.083333     48.000000
  0.416667  0.250000  0.083333     48.000000
  0.500000  0.250000  0.083333     24.000000
  0.333333  0.333333  0.083333     24.000000
  0.416667  0.333333  0.083333     48.000000
  0.500000  0.333333  0.083333     24.000000
  0.416667  0.416667  0.083333     24.000000
  0.500000  0.416667  0.083333     24.000000
  0.500000  0.500000  0.083333      6.000000
  0.166667  0.166667  0.166667      8.000000
  0.250000  0.166667  0.166667     24.000000
  0.333333  0.166667  0.166667     24.000000
  0.416667  0.166667  0.166667     24.000000
  0.500000  0.166667  0.166667     12.000000
  0.250000  0.250000  0.166667     24.000000
  0.333333  0.250000  0.166667     48.000000
  0.416667  0.250000  0.166667     48.000000
  0.500000  0.250000  0.166667     24.000000
  0.333333  0.333333  0.166667     24.000000
  0.416667  0.333333  0.166667     48.000000
[...]
  0.416667  0.333333  0.250000     48.000000
  0.500000  0.333333  0.250000     24.000000
  0.416667  0.416667  0.250000     24.000000
  0.500000  0.416667  0.250000     24.000000
  0.500000  0.500000  0.250000      6.000000
  0.333333  0.333333  0.333333      8.000000
  0.416667  0.333333  0.333333     24.000000
  0.500000  0.333333  0.333333     12.000000
  0.416667  0.416667  0.333333     24.000000
  0.500000  0.416667  0.333333     24.000000
  0.500000  0.500000  0.333333      6.000000
  0.416667  0.416667  0.416667      8.000000
  0.500000  0.416667  0.416667     12.000000
  0.500000  0.500000  0.416667      6.000000
  0.500000  0.500000  0.500000      1.000000

 Following cartesian coordinates:
            Coordinates               Weight
  0.000000  0.000000  0.000000      1.000000
  0.022916  0.000000  0.000000      6.000000
  0.045833  0.000000  0.000000      6.000000
  0.068749  0.000000  0.000000      6.000000
  0.091665  0.000000  0.000000      6.000000
  0.114582  0.000000  0.000000      6.000000
  0.137498  0.000000  0.000000      3.000000
  0.022916  0.022916  0.000000     12.000000
  0.045833  0.022916  0.000000     24.000000
  0.068749  0.022916  0.000000     24.000000
  0.091665  0.022916  0.000000     24.000000
  0.114582  0.022916  0.000000     24.000000
  0.137498  0.022916  0.000000     12.000000
  0.045833  0.045833  0.000000     12.000000
  0.068749  0.045833  0.000000     24.000000
  0.091665  0.045833  0.000000     24.000000
  0.114582  0.045833  0.000000     24.000000
  0.137498  0.045833  0.000000     12.000000
  0.068749  0.068749  0.000000     12.000000
  0.091665  0.068749  0.000000     24.000000
  0.114582  0.068749  0.000000     24.000000
  0.137498  0.068749  0.000000     12.000000
  0.091665  0.091665  0.000000     12.000000
  0.114582  0.091665  0.000000     24.000000
  0.137498  0.091665  0.000000     12.000000
  0.114582  0.114582  0.000000     12.000000
  0.137498  0.114582  0.000000     12.000000
  0.137498  0.137498  0.000000      3.000000
  0.022916  0.022916  0.022916      8.000000
  0.045833  0.022916  0.022916     24.000000
  0.068749  0.022916  0.022916     24.000000
  0.091665  0.022916  0.022916     24.000000
  0.114582  0.022916  0.022916     24.000000
  0.137498  0.022916  0.022916     12.000000
  0.045833  0.045833  0.022916     24.000000
  0.068749  0.045833  0.022916     48.000000
  0.091665  0.045833  0.022916     48.000000
  0.114582  0.045833  0.022916     48.000000
  0.137498  0.045833  0.022916     24.000000
  0.068749  0.068749  0.022916     24.000000
  0.091665  0.068749  0.022916     48.000000
  0.114582  0.068749  0.022916     48.000000
  0.137498  0.068749  0.022916     24.000000
  0.091665  0.091665  0.022916     24.000000
  0.114582  0.091665  0.022916     48.000000
  0.137498  0.091665  0.022916     24.000000
  0.114582  0.114582  0.022916     24.000000
  0.137498  0.114582  0.022916     24.000000
  0.137498  0.137498  0.022916      6.000000
  0.045833  0.045833  0.045833      8.000000
  0.068749  0.045833  0.045833     24.000000
  0.091665  0.045833  0.045833     24.000000
  0.114582  0.045833  0.045833     24.000000
  0.137498  0.045833  0.045833     12.000000
  0.068749  0.068749  0.045833     24.000000
  0.091665  0.068749  0.045833     48.000000
  0.114582  0.068749  0.045833     48.000000
  0.137498  0.068749  0.045833     24.000000
  0.091665  0.091665  0.045833     24.000000
  0.114582  0.091665  0.045833     48.000000
[...]
  0.114582  0.091665  0.068749     48.000000
  0.137498  0.091665  0.068749     24.000000
  0.114582  0.114582  0.068749     24.000000
  0.137498  0.114582  0.068749     24.000000
  0.137498  0.137498  0.068749      6.000000
  0.091665  0.091665  0.091665      8.000000
  0.114582  0.091665  0.091665     24.000000
  0.137498  0.091665  0.091665     12.000000
  0.114582  0.114582  0.091665     24.000000
  0.137498  0.114582  0.091665     24.000000
  0.137498  0.137498  0.091665      6.000000
  0.114582  0.114582  0.114582      8.000000
  0.137498  0.114582  0.114582     12.000000
  0.137498  0.137498  0.114582      6.000000
  0.137498  0.137498  0.137498      1.000000

 I would recommend the setting:
   dimension x,y,z NGX =    31 NGY =   31 NGZ =   31
 SYSTEM =  unknown system
 POSCAR =  Cu

 Startparameter for this run:
   NWRITE =      2    write-flag & timer
   PREC   = accura    medium, high low
   ISTART =      0    job   : 0-new  1-cont  2-samecut
   ICHARG =      2    charge: 1-file 2-atom 10-const
   ISPIN  =      1    spin polarized calculation?
   LNONCOLLINEAR =      F non collinear calculations
   LSORBIT =      F    spin-orbit coupling
   INIWAV =      1    electr: 0-lowe 1-rand  2-diag
   LASPH  =      F    aspherical Exc in radial PAW
   METAGGA=      F    non-selfconsistent MetaGGA calc.

 Electronic Relaxation 1
   ENCUT  =  750.0 eV  55.12 Ry    7.42 a.u.   7.80  7.80  7.80*2*pi/ulx,y,z
   ENINI  =  750.0     initial cutoff
   ENAUG  =  516.5 eV  augmentation charge cutoff
   NELM   =     60;   NELMIN=  2; NELMDL=  0     # of ELM steps
   EDIFF  = 0.1E-07   stopping-criterion for ELM
   LREAL  =      F    real-space projection
   LCOMPAT=      F    compatible to vasp.4.4
   LREAL_COMPAT= F    compatible to vasp.4.5.1-3
   GGA_COMPAT  = T    GGA compatible to vasp.4.4-vasp.4.6
   LMAXPAW     = -100 max onsite density
   LMAXMIX     =    2 max onsite mixed and CHGCAR
[...]
   0.33333333  0.16666667  0.00000000       0.014
   0.41666667  0.16666667  0.00000000       0.014
   0.50000000  0.16666667  0.00000000       0.007
   0.25000000  0.25000000  0.00000000       0.007
   0.33333333  0.25000000  0.00000000       0.014
   0.41666667  0.25000000  0.00000000       0.014
   0.50000000  0.25000000  0.00000000       0.007
   0.33333333  0.33333333  0.00000000       0.007
   0.41666667  0.33333333  0.00000000       0.014
   0.50000000  0.33333333  0.00000000       0.007
   0.41666667  0.41666667  0.00000000       0.007
   0.50000000  0.41666667  0.00000000       0.007
   0.50000000  0.50000000  0.00000000       0.002
   0.08333333  0.08333333  0.08333333       0.005
   0.16666667  0.08333333  0.08333333       0.014
   0.25000000  0.08333333  0.08333333       0.014
   0.33333333  0.08333333  0.08333333       0.014
   0.41666667  0.08333333  0.08333333       0.014
   0.50000000  0.08333333  0.08333333       0.007
   0.16666667  0.16666667  0.08333333       0.014
   0.25000000  0.16666667  0.08333333       0.028
   0.33333333  0.16666667  0.08333333       0.028
   0.41666667  0.16666667  0.08333333       0.028
   0.50000000  0.16666667  0.08333333       0.014
   0.25000000  0.25000000  0.08333333       0.014
   0.33333333  0.25000000  0.08333333       0.028
   0.41666667  0.25000000  0.08333333       0.028
   0.50000000  0.25000000  0.08333333       0.014
   0.33333333  0.33333333  0.08333333       0.014
   0.41666667  0.33333333  0.08333333       0.028
   0.50000000  0.33333333  0.08333333       0.014
   0.41666667  0.41666667  0.08333333       0.014
   0.50000000  0.41666667  0.08333333       0.014
   0.50000000  0.50000000  0.08333333       0.003
   0.16666667  0.16666667  0.16666667       0.005
   0.25000000  0.16666667  0.16666667       0.014
   0.33333333  0.16666667  0.16666667       0.014
   0.41666667  0.16666667  0.16666667       0.014
   0.50000000  0.16666667  0.16666667       0.007
   0.25000000  0.25000000  0.16666667       0.014
   0.33333333  0.25000000  0.16666667       0.028
   0.41666667  0.25000000  0.16666667       0.028
   0.50000000  0.25000000  0.16666667       0.014
   0.33333333  0.33333333  0.16666667       0.014
   0.41666667  0.33333333  0.16666667       0.028
[...]
   0.41666667  0.33333333  0.25000000       0.028
   0.50000000  0.33333333  0.25000000       0.014
   0.41666667  0.41666667  0.25000000       0.014
   0.50000000  0.41666667  0.25000000       0.014
   0.50000000  0.50000000  0.25000000       0.003
   0.33333333  0.33333333  0.33333333       0.005
   0.41666667  0.33333333  0.33333333       0.014
   0.50000000  0.33333333  0.33333333       0.007
   0.41666667  0.41666667  0.33333333       0.014
   0.50000000  0.41666667  0.33333333       0.014
   0.50000000  0.50000000  0.33333333       0.003
   0.41666667  0.41666667  0.41666667       0.005
   0.50000000  0.41666667  0.41666667       0.007
   0.50000000  0.50000000  0.41666667       0.003
   0.50000000  0.50000000  0.50000000       0.001

 position of ions in fractional coordinates (direct lattice)
   0.00000000  0.00000000  0.00000000
   0.50000000  0.50000000  0.00000000
   0.50000000  0.00000000  0.50000000
   0.00000000  0.50000000  0.50000000

 position of ions in cartesian coordinates  (Angst):
   0.00000000  0.00000000  0.00000000
   1.74547959  1.74547959  0.00000000
   1.74547959  0.00000000  1.74547959
   0.00000000  1.74547959  1.74547959

 k-point  1 :  0.00000.00000.0000  plane waves:   1935
 k-point  2 :  0.08330.00000.0000  plane waves:   1967
 k-point  3 :  0.16670.00000.0000  plane waves:   1983
 k-point  4 :  0.25000.00000.0000  plane waves:   1980
 k-point  5 :  0.33330.00000.0000  plane waves:   1972
 k-point  6 :  0.41670.00000.0000  plane waves:   1988
 k-point  7 :  0.50000.00000.0000  plane waves:   1984
 k-point  8 :  0.08330.08330.0000  plane waves:   1977
 k-point  9 :  0.16670.08330.0000  plane waves:   1980
 k-point 10 :  0.25000.08330.0000  plane waves:   1984
 k-point 11 :  0.33330.08330.0000  plane waves:   1982
 k-point 12 :  0.41670.08330.0000  plane waves:   1990
 k-point 13 :  0.50000.08330.0000  plane waves:   1994
 k-point 14 :  0.16670.16670.0000  plane waves:   1991
 k-point 15 :  0.25000.16670.0000  plane waves:   1983
 k-point 16 :  0.33330.16670.0000  plane waves:   1969
 k-point 17 :  0.41670.16670.0000  plane waves:   1994
 k-point 18 :  0.50000.16670.0000  plane waves:   1984
 k-point 19 :  0.25000.25000.0000  plane waves:   1979
 k-point 20 :  0.33330.25000.0000  plane waves:   1982
 k-point 21 :  0.41670.25000.0000  plane waves:   1990
 k-point 22 :  0.50000.25000.0000  plane waves:   1986
 k-point 23 :  0.33330.33330.0000  plane waves:   2003
 k-point 24 :  0.41670.33330.0000  plane waves:   1989
 k-point 25 :  0.50000.33330.0000  plane waves:   1996
 k-point 26 :  0.41670.41670.0000  plane waves:   1983
 k-point 27 :  0.50000.41670.0000  plane waves:   1994
 k-point 28 :  0.50000.50000.0000  plane waves:   2000
 k-point 29 :  0.08330.08330.0833  plane waves:   1974
 k-point 30 :  0.16670.08330.0833  plane waves:   1978
 k-point 31 :  0.25000.08330.0833  plane waves:   1977
 k-point 32 :  0.33330.08330.0833  plane waves:   1977
 k-point 33 :  0.41670.08330.0833  plane waves:   1989
 k-point 34 :  0.50000.08330.0833  plane waves:   1984
 k-point 35 :  0.16670.16670.0833  plane waves:   1975
 k-point 36 :  0.25000.16670.0833  plane waves:   1977
 k-point 37 :  0.33330.16670.0833  plane waves:   1983
 k-point 38 :  0.41670.16670.0833  plane waves:   1989
 k-point 39 :  0.50000.16670.0833  plane waves:   1986
 k-point 40 :  0.25000.25000.0833  plane waves:   1975
 k-point 41 :  0.33330.25000.0833  plane waves:   1983
 k-point 42 :  0.41670.25000.0833  plane waves:   1984
 k-point 43 :  0.50000.25000.0833  plane waves:   1992
 k-point 44 :  0.33330.33330.0833  plane waves:   1989
 k-point 45 :  0.41670.33330.0833  plane waves:   1987
 k-point 46 :  0.50000.33330.0833  plane waves:   1994
 k-point 47 :  0.41670.41670.0833  plane waves:   1995
 k-point 48 :  0.50000.41670.0833  plane waves:   1996
 k-point 49 :  0.50000.50000.0833  plane waves:   2000
 k-point 50 :  0.16670.16670.1667  plane waves:   1980
 k-point 51 :  0.25000.16670.1667  plane waves:   1972
 k-point 52 :  0.33330.16670.1667  plane waves:   1980
 k-point 53 :  0.41670.16670.1667  plane waves:   1980
 k-point 54 :  0.50000.16670.1667  plane waves:   1974
 k-point 55 :  0.25000.25000.1667  plane waves:   1974
 k-point 56 :  0.33330.25000.1667  plane waves:   1986
 k-point 57 :  0.41670.25000.1667  plane waves:   1988
 k-point 58 :  0.50000.25000.1667  plane waves:   1982
 k-point 59 :  0.33330.33330.1667  plane waves:   1990
 k-point 60 :  0.41670.33330.1667  plane waves:   1986
[...]
 k-point 70 :  0.41670.33330.2500  plane waves:   1985
 k-point 71 :  0.50000.33330.2500  plane waves:   1992
 k-point 72 :  0.41670.41670.2500  plane waves:   1993
 k-point 73 :  0.50000.41670.2500  plane waves:   1992
 k-point 74 :  0.50000.50000.2500  plane waves:   1996
 k-point 75 :  0.33330.33330.3333  plane waves:   1980
 k-point 76 :  0.41670.33330.3333  plane waves:   1982
 k-point 77 :  0.50000.33330.3333  plane waves:   1972
 k-point 78 :  0.41670.41670.3333  plane waves:   1974
 k-point 79 :  0.50000.41670.3333  plane waves:   1980
 k-point 80 :  0.50000.50000.3333  plane waves:   1964
 k-point 81 :  0.41670.41670.4167  plane waves:   1965
 k-point 82 :  0.50000.41670.4167  plane waves:   1962
 k-point 83 :  0.50000.50000.4167  plane waves:   1956
 k-point 84 :  0.50000.50000.5000  plane waves:   2008

 maximum and minimum number of plane-waves per node :   2008  1935

 maximum number of plane-waves:   2008
 maximal index in each direction:
   IXMAX=  7   IYMAX=  7   IZMAX=  7
   IXMIN= -8   IYMIN= -8   IZMIN= -8

 NGX is ok and might be reduce to  32
 NGY is ok and might be reduce to  32
 NGZ is ok and might be reduce to  32

 parallel 3dFFT wavefunction:
    minimum data exchange during FFTs selected (reduces bandwidth)
 parallel 3dFFT charge:
    minimum data exchange during FFTs selected (reduces bandwidth)

Broyden mixing: mesh for mixing (old mesh)
   NGX = 15   NGY = 15   NGZ = 15
  (NGX  = 64   NGY  = 64   NGZ  = 64)
 gives a total of   3375 points
 initial charge density was supplied:
 charge density of overlapping atoms calculated
 number of electron   44.0000000 magnetization
 keeping initial charge density in first step

 Maximum index for augmentation-charges       104813 (set IRDMAX)

 First call to EWALD:  gamma=   0.508
 Maximum number of real-space cells 3x 3x 3
 Maximum number of reciprocal cells 3x 3x 3

----------------------------------------- Iteration    1(   1)  ---------------------------------------

 eigenvalue-minimisations  :  4480
 total energy-change (2. order) : 0.3196416E+03  (-0.2762907E+04)
 number of electron   44.0000000 magnetization
 augmentation part    44.0000000 magnetization

 Free energy of the ion-electron system (eV)
  alpha Z        PSCENC =       480.49523212
  Ewald energy   TEWEN  =     -4576.70530040
  -1/2 Hartree   DENC   =     -1224.09438641
  -V(xc)+E(xc)   XCENC  =       176.86105252
  PAW double counting   =      4328.20916945    -4904.30802700
  entropy T*S    EENTRO =        -0.00022514
  eigenvalues    EBANDS =       475.26656045
  atomic energy  EATOM  =      5563.91755062
  free energy    TOTEN  =       319.64162619 eV

  energy without entropy =      319.64185134  energy(sigma->0) =      319.64173877

[...]

 eigenvalue-minimisations  :  4368
 total energy-change (2. order) :-0.3185655E+03  (-0.3119337E+03)
 number of electron   44.0000000 magnetization
 augmentation part    44.0000000 magnetization

[...]

 Broyden mixing:
  rms(total) = 0.14119E+01    rms(broyden)= 0.14119E+01
  rms(prec ) = 0.34201E+01
  weight for this iteration     100.00

[...]

 eigenvalues of (default mixing * dielectric matrix)
  average eigenvalue GAMMA=   0.7453
  0.7453

[...]

 eigenvalue-minimisations  :  2226
 total energy-change (2. order) : 0.1971966E-07  (-0.1468634E-09)
 number of electron   44.0000001 magnetization
 augmentation part    28.6545879 magnetization

 Broyden mixing:
  rms(total) = 0.31230E-05    rms(broyden)= 0.31230E-05
  rms(prec ) = 0.72556E-05
  weight for this iteration     100.00

 eigenvalues of (default mixing * dielectric matrix)
  average eigenvalue GAMMA=   1.5922
  2.7263  2.7263  2.6343  2.4838  1.0118  1.0118  0.9492  0.9492  0.7132  0.7157

[...]

----------------------------------------- Iteration    1(  16)  ---------------------------------------

 eigenvalue-minimisations  :  2208
 total energy-change (2. order) :-0.7516974E-08  (-0.3720725E-10)
 number of electron   44.0000001 magnetization
 augmentation part    28.6545879 magnetization

 Free energy of the ion-electron system (eV)
  alpha Z        PSCENC =       480.49523212
  Ewald energy   TEWEN  =     -4576.70530040
  -1/2 Hartree   DENC   =     -1132.88599663
  -V(xc)+E(xc)   XCENC  =       172.25790390
  PAW double counting   =      4468.33760113    -5049.89043199
  entropy T*S    EENTRO =        -0.00013907
  eigenvalues    EBANDS =        59.94762412
  atomic energy  EATOM  =      5563.91755062
  free energy    TOTEN  =       -14.52595621 eV

  energy without entropy =      -14.52581713  energy(sigma->0) =      -14.52588667

 average (electrostatic) potential at core
  the test charge radii are     1.0053
  (the norm of the test charge is              1.0000)
       1 -39.2297       2 -39.2297       3 -39.2297       4 -39.2297

 E-fermi :   4.7878     XC(G=0): -13.4261     alpha+bet :-10.6942
   add alpha+bet to get absolut eigen values

 k-point   1 :       0.0000    0.0000    0.0000
  band No.  band energies     occupation
      1      -5.4317      2.00000
      2      -0.8084      2.00000
      3      -0.8084      2.00000
      4      -0.8084      2.00000
      5      -0.2830      2.00000
      6      -0.2830      2.00000
      7      -0.2830      2.00000
      8       1.3550      2.00000
      9       1.3550      2.00000
     10       1.3550      2.00000
     11       2.3296      2.00000
     12       2.3296      2.00000
     13       2.9755      2.00000
     14       2.9755      2.00000
     15       2.9755      2.00000
     16       3.1573      2.00000
     17       3.1573      2.00000
     18       3.1573      2.00000
     19       3.1573      2.00000
     20       3.1573      2.00000
     21       3.1573      2.00000
     22       6.1845      0.00000
     23       6.1845      0.00000
     24       6.1845      0.00000
     25      12.6340      0.00000
     26      12.6340      0.00000

[...]

 k-point  84 :       0.5000    0.5000    0.5000
  band No.  band energies     occupation
      1      -0.9715      2.00000
      2      -0.9715      2.00000
      3      -0.9715      2.00000
      4      -0.9715      2.00000
      5       1.3162      2.00000
      6       1.3162      2.00000
      7       1.3162      2.00000
      8       1.3162      2.00000
      9       1.3162      2.00000
     10       1.3162      2.00000
     11       1.3162      2.00000
     12       1.3162      2.00000
     13       2.9920      2.00000
     14       2.9920      2.00000
     15       2.9920      2.00000
     16       2.9920      2.00000
     17       2.9920      2.00000
     18       2.9920      2.00000
     19       2.9920      2.00000
     20       2.9920      2.00000
     21       3.4332      2.00000
     22       3.4332      2.00000
     23       3.4332      2.00000
     24       3.4332      2.00000
     25       9.0608      0.00000
     26       9.0608      0.00000

 soft charge-density along one line, spin component           1
         0         1         2         3         4         5         6         7         8         9
 total charge-density along one line

------------------------ aborting loop because EDIFF is reached ----------------------------------------

  FREE ENERGIE OF THE ION-ELECTRON SYSTEM (eV)
  free  energy   TOTEN  =       -14.525956 eV

  energy  without entropy=      -14.525817  energy(sigma->0) =      -14.525887

  FORCE on cell =-STRESS in cart. coord.  units (eV/reduce length):
  Direction    X        Y        Z        XY       YZ       ZX
  Alpha Z    480.50    480.50    480.50
  Ewald    -1525.57  -1525.57  -1525.57     -0.00     -0.00      0.00
  Hartree    377.63    377.63    377.63     -0.00     -0.00     -0.00
  E(xc)     -251.69   -251.69   -251.69     -0.00     -0.00      0.00
  Local      521.65    521.65    521.65      0.00      0.00     -0.00
  n-local   -136.52   -142.55   -144.11      0.37      1.78      0.66
  augment    226.32    226.32    226.32      0.00     -0.00      0.00
  Kinetic    326.17    317.64    311.22     -3.28     -0.31     -1.42
  Total        6.13      6.13      6.13     -0.00      0.00     -0.00
  in kB      230.69    230.69    230.69     -0.00      0.00     -0.00

 VOLUME and BASIS-vectors are now :
  energy-cutoff  :      750.00
  volume of cell :       42.54
      direct lattice vectors                 reciprocal lattice vectors
     3.490959179  0.000000000  0.000000000     0.286454223  0.000000000  0.000000000
     0.000000000  3.490959179  0.000000000     0.000000000  0.286454223  0.000000000
     0.000000000  0.000000000  3.490959179     0.000000000  0.000000000  0.286454223

  length of vectors
     3.490959179  3.490959179  3.490959179     0.286454223  0.286454223  0.286454223

 FORCES acting on ions
    electron-ion (+dipol)            ewald-force                    non-local-force                 convergence-correction
   -.523E-16 0.322E-13 -.527E-13   0.346E-14 -.263E-15 -.277E-14   0.620E-24 -.207E-24 -.207E-24   -.665E-13 -.677E-14 -.104E-13
   0.181E-12 -.276E-11 -.363E-11   -.164E-13 0.141E-13 -.258E-14   -.646E-26 -.103E-23 0.000E+00   -.215E-13 -.136E-13 0.409E-14
   0.181E-12 0.325E-13 -.458E-11   0.289E-13 -.149E-13 0.277E-14   -.207E-24 0.000E+00 0.414E-24   -.243E-13 -.186E-13 -.160E-13
   -.221E-15 0.215E-12 0.138E-12   -.151E-13 -.490E-15 0.296E-14   0.207E-24 0.000E+00 -.155E-24   -.591E-13 -.600E-14 -.150E-13
   0.362E-12 -.248E-11 -.812E-11   0.813E-15 -.151E-14 0.373E-15   0.614E-24 -.124E-23 0.517E-25   -.171E-12 -.450E-13 -.373E-13

 POSITION                                       TOTAL-FORCE (eV/Angst)
      0.00000      0.00000      0.00000        -0.000000      0.000000      0.000000
      1.74548      1.74548      0.00000         0.000000      0.000000      0.000000
      1.74548      0.00000      1.74548        -0.000000      0.000000     -0.000000
      0.00000      1.74548      1.74548        -0.000000      0.000000     -0.000000
    total drift:                                0.000000     -0.000000     -0.000000

 mean value of Nose-termostat <S>:     1.000 mean value of <T> :     0.000
 mean temperature <T/S>/<1/S>  :     0.000