 vasp.4.6.28 25Jul05 complex
 executed on             LinuxIFC date 2016.12.21  13:28:46

 INCAR:
 POTCAR:   PAW_PBE Au 06Sep2000
 POTCAR:   PAW_PBE Au 06Sep2000
   VRHFIN =Au: s1d10

   TITEL  = PAW_PBE Au 06Sep2000
   POMASS =  196.966; ZVAL   =   11.000    mass and valenz
   ENMAX  =  229.948; ENMIN  =  172.461 eV
   QCUT   =   -4.111; QGAM   =    8.222    optimization parameters

   Description
     l     E      TYP  RCUT    TYP  RCUT
     2   .000     23  2.500
     2   .000     23  2.500
     0   .000     23  2.500
     0   .000     23  2.500
     1  -.200     23  2.500
     1   .000     23  2.500
     3   .000      7   .000

 PAW_PBE Au 06Sep2000                   :

 POSCAR: Au
  positions in direct lattice
  velocities in cartesian coordinates

 ion  position               nearest neighbor table
   1  0.000  0.000  0.000-   2 2.95   3 2.95   4 2.95   3 2.95   4 2.95   2 2.95   4 2.95   4 2.95
                             2 2.95   3 2.95   3 2.95   2 2.95
   2  0.500  0.500  0.000-   1 2.95   3 2.95   4 2.95   3 2.95   4 2.95   1 2.95   3 2.95   3 2.95
                             1 2.95   4 2.95   4 2.95   1 2.95
   3  0.500  0.000  0.500-   1 2.95   2 2.95   4 2.95   1 2.95   2 2.95   2 2.95   4 2.95   2 2.95
                             1 2.95   4 2.95   1 2.95   4 2.95
   4  0.000  0.500  0.500-   1 2.95   2 2.95   3 2.95   1 2.95   2 2.95   1 2.95   3 2.95   1 2.95
                             2 2.95   3 2.95   2 2.95   3 2.95

  LATTYP: Found a simple cubic cell.
 ALAT       =     4.1728519023

  Lattice vectors:

 A1 = (   4.1728519023,   0.0000000000,   0.0000000000)
 A2 = (   0.0000000000,   4.1728519023,   0.0000000000)
 A3 = (   0.0000000000,   0.0000000000,   4.1728519023)
 Subroutine PRICEL returns following result:

  LATTYP: Found a face centered cubic cell.
 ALAT       =     4.1728519023

  Lattice vectors:

 A1 = (   2.0864259512,   2.0864259512,   0.0000000000)
 A2 = (   2.0864259512,   0.0000000000,  -2.0864259512)
 A3 = (   0.0000000000,   2.0864259512,  -2.0864259512)

   4 primitive cells build up your supercell.

Analysis of symmetry for initial positions (statically):

 Routine SETGRP: Setting up the symmetry group for a
 simple cubic supercell.

 Subroutine GETGRP returns: Found 48 space group operations
 (whereof 48 operations were pure point group operations)
 out of a pool of 48 trial point group operations.

The static configuration has the point symmetry O_h .

Analysis of symmetry for dynamics (positions and initial velocities):

 Subroutine DYNSYM returns: Found 48 space group operations
 (whereof 48 operations were pure point group operations)
 out of a pool of 48 trial space group operations
 (whereof 48 operations were pure point group operations)
 and found also     4 'primitive' translations

The dynamic configuration has the point symmetry O_h .

 KPOINTS: Automatic mesh

Automatic generation of k-mesh.
 generate k-points for:  12  12  12

 Subroutine IBZKPT returns following result:

 Found     84 irreducible k-points:

 Following reciprocal coordinates:
            Coordinates               Weight
  0.000000  0.000000  0.000000      1.000000
  0.083333  0.000000  0.000000      6.000000
  0.166667  0.000000  0.000000      6.000000
  0.250000  0.000000  0.000000      6.000000
  0.333333  0.000000  0.000000      6.000000
  0.416667  0.000000  0.000000      6.000000
  0.500000  0.000000  0.000000      3.000000
  0.083333  0.083333  0.000000     12.000000
  0.166667  0.083333  0.000000     24.000000
  0.250000  0.083333  0.000000     24.000000
  0.333333  0.083333  0.000000     24.000000
  0.416667  0.083333  0.000000     24.000000
  0.500000  0.083333  0.000000     12.000000
  0.166667  0.166667  0.000000     12.000000
  0.250000  0.166667  0.000000     24.000000
  0.333333  0.166667  0.000000     24.000000
  0.416667  0.166667  0.000000     24.000000
  0.500000  0.166667  0.000000     12.000000
  0.250000  0.250000  0.000000     12.000000
  0.333333  0.250000  0.000000     24.000000
  0.416667  0.250000  0.000000     24.000000
  0.500000  0.250000  0.000000     12.000000
  0.333333  0.333333  0.000000     12.000000
  0.416667  0.333333  0.000000     24.000000
  0.500000  0.333333  0.000000     12.000000
  0.416667  0.416667  0.000000     12.000000
  0.500000  0.416667  0.000000     12.000000
  0.500000  0.500000  0.000000      3.000000
  0.083333  0.083333  0.083333      8.000000
  0.166667  0.083333  0.083333     24.000000
  0.250000  0.083333  0.083333     24.000000
  0.333333  0.083333  0.083333     24.000000
  0.416667  0.083333  0.083333     24.000000
  0.500000  0.083333  0.083333     12.000000
  0.166667  0.166667  0.083333     24.000000
  0.250000  0.166667  0.083333     48.000000
  0.333333  0.166667  0.083333     48.000000
  0.416667  0.166667  0.083333     48.000000
  0.500000  0.166667  0.083333     24.000000
  0.250000  0.250000  0.083333     24.000000
  0.333333  0.250000  0.083333     48.000000
  0.416667  0.250000  0.083333     48.000000
  0.500000  0.250000  0.083333     24.000000
  0.333333  0.333333  0.083333     24.000000
  0.416667  0.333333  0.083333     48.000000
  0.500000  0.333333  0.083333     24.000000
  0.416667  0.416667  0.083333     24.000000
  0.500000  0.416667  0.083333     24.000000
  0.500000  0.500000  0.083333      6.000000
  0.166667  0.166667  0.166667      8.000000
  0.250000  0.166667  0.166667     24.000000
  0.333333  0.166667  0.166667     24.000000
  0.416667  0.166667  0.166667     24.000000
  0.500000  0.166667  0.166667     12.000000
  0.250000  0.250000  0.166667     24.000000
  0.333333  0.250000  0.166667     48.000000
  0.416667  0.250000  0.166667     48.000000
  0.500000  0.250000  0.166667     24.000000
  0.333333  0.333333  0.166667     24.000000
  0.416667  0.333333  0.166667     48.000000
[...]
  0.416667  0.333333  0.250000     48.000000
  0.500000  0.333333  0.250000     24.000000
  0.416667  0.416667  0.250000     24.000000
  0.500000  0.416667  0.250000     24.000000
  0.500000  0.500000  0.250000      6.000000
  0.333333  0.333333  0.333333      8.000000
  0.416667  0.333333  0.333333     24.000000
  0.500000  0.333333  0.333333     12.000000
  0.416667  0.416667  0.333333     24.000000
  0.500000  0.416667  0.333333     24.000000
  0.500000  0.500000  0.333333      6.000000
  0.416667  0.416667  0.416667      8.000000
  0.500000  0.416667  0.416667     12.000000
  0.500000  0.500000  0.416667      6.000000
  0.500000  0.500000  0.500000      1.000000

 Following cartesian coordinates:
            Coordinates               Weight
  0.000000  0.000000  0.000000      1.000000
  0.019970  0.000000  0.000000      6.000000
  0.039941  0.000000  0.000000      6.000000
  0.059911  0.000000  0.000000      6.000000
  0.079881  0.000000  0.000000      6.000000
  0.099852  0.000000  0.000000      6.000000
  0.119822  0.000000  0.000000      3.000000
  0.019970  0.019970  0.000000     12.000000
  0.039941  0.019970  0.000000     24.000000
  0.059911  0.019970  0.000000     24.000000
  0.079881  0.019970  0.000000     24.000000
  0.099852  0.019970  0.000000     24.000000
  0.119822  0.019970  0.000000     12.000000
  0.039941  0.039941  0.000000     12.000000
  0.059911  0.039941  0.000000     24.000000
  0.079881  0.039941  0.000000     24.000000
  0.099852  0.039941  0.000000     24.000000
  0.119822  0.039941  0.000000     12.000000
  0.059911  0.059911  0.000000     12.000000
  0.079881  0.059911  0.000000     24.000000
  0.099852  0.059911  0.000000     24.000000
  0.119822  0.059911  0.000000     12.000000
  0.079881  0.079881  0.000000     12.000000
  0.099852  0.079881  0.000000     24.000000
  0.119822  0.079881  0.000000     12.000000
  0.099852  0.099852  0.000000     12.000000
  0.119822  0.099852  0.000000     12.000000
  0.119822  0.119822  0.000000      3.000000
  0.019970  0.019970  0.019970      8.000000
  0.039941  0.019970  0.019970     24.000000
  0.059911  0.019970  0.019970     24.000000
  0.079881  0.019970  0.019970     24.000000
  0.099852  0.019970  0.019970     24.000000
  0.119822  0.019970  0.019970     12.000000
  0.039941  0.039941  0.019970     24.000000
  0.059911  0.039941  0.019970     48.000000
  0.079881  0.039941  0.019970     48.000000
  0.099852  0.039941  0.019970     48.000000
  0.119822  0.039941  0.019970     24.000000
  0.059911  0.059911  0.019970     24.000000
  0.079881  0.059911  0.019970     48.000000
  0.099852  0.059911  0.019970     48.000000
  0.119822  0.059911  0.019970     24.000000
  0.079881  0.079881  0.019970     24.000000
  0.099852  0.079881  0.019970     48.000000
  0.119822  0.079881  0.019970     24.000000
  0.099852  0.099852  0.019970     24.000000
  0.119822  0.099852  0.019970     24.000000
  0.119822  0.119822  0.019970      6.000000
  0.039941  0.039941  0.039941      8.000000
  0.059911  0.039941  0.039941     24.000000
  0.079881  0.039941  0.039941     24.000000
  0.099852  0.039941  0.039941     24.000000
  0.119822  0.039941  0.039941     12.000000
  0.059911  0.059911  0.039941     24.000000
  0.079881  0.059911  0.039941     48.000000
  0.099852  0.059911  0.039941     48.000000
  0.119822  0.059911  0.039941     24.000000
  0.079881  0.079881  0.039941     24.000000
  0.099852  0.079881  0.039941     48.000000
[...]
  0.099852  0.079881  0.059911     48.000000
  0.119822  0.079881  0.059911     24.000000
  0.099852  0.099852  0.059911     24.000000
  0.119822  0.099852  0.059911     24.000000
  0.119822  0.119822  0.059911      6.000000
  0.079881  0.079881  0.079881      8.000000
  0.099852  0.079881  0.079881     24.000000
  0.119822  0.079881  0.079881     12.000000
  0.099852  0.099852  0.079881     24.000000
  0.119822  0.099852  0.079881     24.000000
  0.119822  0.119822  0.079881      6.000000
  0.099852  0.099852  0.099852      8.000000
  0.119822  0.099852  0.099852     12.000000
  0.119822  0.119822  0.099852      6.000000
  0.119822  0.119822  0.119822      1.000000

 I would recommend the setting:
   dimension x,y,z NGX =    30 NGY =   30 NGZ =   30
 SYSTEM =  unknown system
 POSCAR =  Au

 Startparameter for this run:
   NWRITE =      2    write-flag & timer
   PREC   = accura    medium, high low
   ISTART =      0    job   : 0-new  1-cont  2-samecut
   ICHARG =      2    charge: 1-file 2-atom 10-const
   ISPIN  =      1    spin polarized calculation?
   LNONCOLLINEAR =      F non collinear calculations
   LSORBIT =      F    spin-orbit coupling
   INIWAV =      1    electr: 0-lowe 1-rand  2-diag
   LASPH  =      F    aspherical Exc in radial PAW
   METAGGA=      F    non-selfconsistent MetaGGA calc.

 Electronic Relaxation 1
   ENCUT  =  500.0 eV  36.75 Ry    6.06 a.u.   7.61  7.61  7.61*2*pi/ulx,y,z
   ENINI  =  500.0     initial cutoff
   ENAUG  =  356.7 eV  augmentation charge cutoff
   NELM   =     60;   NELMIN=  2; NELMDL=  0     # of ELM steps
   EDIFF  = 0.1E-07   stopping-criterion for ELM
   LREAL  =      F    real-space projection
   LCOMPAT=      F    compatible to vasp.4.4
   LREAL_COMPAT= F    compatible to vasp.4.5.1-3
   GGA_COMPAT  = T    GGA compatible to vasp.4.4-vasp.4.6
   LMAXPAW     = -100 max onsite density
   LMAXMIX     =    2 max onsite mixed and CHGCAR
[...]
   0.25000000  0.25000000  0.00000000       0.007
   0.33333333  0.25000000  0.00000000       0.014
   0.41666667  0.25000000  0.00000000       0.014
   0.50000000  0.25000000  0.00000000       0.007
   0.33333333  0.33333333  0.00000000       0.007
   0.41666667  0.33333333  0.00000000       0.014
   0.50000000  0.33333333  0.00000000       0.007
   0.41666667  0.41666667  0.00000000       0.007
   0.50000000  0.41666667  0.00000000       0.007
   0.50000000  0.50000000  0.00000000       0.002
   0.08333333  0.08333333  0.08333333       0.005
   0.16666667  0.08333333  0.08333333       0.014
   0.25000000  0.08333333  0.08333333       0.014
   0.33333333  0.08333333  0.08333333       0.014
   0.41666667  0.08333333  0.08333333       0.014
   0.50000000  0.08333333  0.08333333       0.007
   0.16666667  0.16666667  0.08333333       0.014
   0.25000000  0.16666667  0.08333333       0.028
   0.33333333  0.16666667  0.08333333       0.028
   0.41666667  0.16666667  0.08333333       0.028
   0.50000000  0.16666667  0.08333333       0.014
   0.25000000  0.25000000  0.08333333       0.014
   0.33333333  0.25000000  0.08333333       0.028
   0.41666667  0.25000000  0.08333333       0.028
   0.50000000  0.25000000  0.08333333       0.014
   0.33333333  0.33333333  0.08333333       0.014
   0.41666667  0.33333333  0.08333333       0.028
   0.50000000  0.33333333  0.08333333       0.014
   0.41666667  0.41666667  0.08333333       0.014
   0.50000000  0.41666667  0.08333333       0.014
   0.50000000  0.50000000  0.08333333       0.003
   0.16666667  0.16666667  0.16666667       0.005
   0.25000000  0.16666667  0.16666667       0.014
   0.33333333  0.16666667  0.16666667       0.014
   0.41666667  0.16666667  0.16666667       0.014
   0.50000000  0.16666667  0.16666667       0.007
   0.25000000  0.25000000  0.16666667       0.014
   0.33333333  0.25000000  0.16666667       0.028
   0.41666667  0.25000000  0.16666667       0.028
   0.50000000  0.25000000  0.16666667       0.014
   0.33333333  0.33333333  0.16666667       0.014
   0.41666667  0.33333333  0.16666667       0.028
[...]
   0.41666667  0.33333333  0.25000000       0.028
   0.50000000  0.33333333  0.25000000       0.014
   0.41666667  0.41666667  0.25000000       0.014
   0.50000000  0.41666667  0.25000000       0.014
   0.50000000  0.50000000  0.25000000       0.003
   0.33333333  0.33333333  0.33333333       0.005
   0.41666667  0.33333333  0.33333333       0.014
   0.50000000  0.33333333  0.33333333       0.007
   0.41666667  0.41666667  0.33333333       0.014
   0.50000000  0.41666667  0.33333333       0.014
   0.50000000  0.50000000  0.33333333       0.003
   0.41666667  0.41666667  0.41666667       0.005
   0.50000000  0.41666667  0.41666667       0.007
   0.50000000  0.50000000  0.41666667       0.003
   0.50000000  0.50000000  0.50000000       0.001

 position of ions in fractional coordinates (direct lattice)
   0.00000000  0.00000000  0.00000000
   0.50000000  0.50000000  0.00000000
   0.50000000  0.00000000  0.50000000
   0.00000000  0.50000000  0.50000000

 position of ions in cartesian coordinates  (Angst):
   0.00000000  0.00000000  0.00000000
   2.08642595  2.08642595  0.00000000
   2.08642595  0.00000000  2.08642595
   0.00000000  2.08642595  2.08642595

 k-point  1 :  0.00000.00000.0000  plane waves:   1839
 k-point  2 :  0.08330.00000.0000  plane waves:   1851
 k-point  3 :  0.16670.00000.0000  plane waves:   1839
 k-point  4 :  0.25000.00000.0000  plane waves:   1835
 k-point  5 :  0.33330.00000.0000  plane waves:   1847
 k-point  6 :  0.41670.00000.0000  plane waves:   1844
 k-point  7 :  0.50000.00000.0000  plane waves:   1840
 k-point  8 :  0.08330.08330.0000  plane waves:   1855
 k-point  9 :  0.16670.08330.0000  plane waves:   1851
 k-point 10 :  0.25000.08330.0000  plane waves:   1847
 k-point 11 :  0.33330.08330.0000  plane waves:   1850
 k-point 12 :  0.41670.08330.0000  plane waves:   1853
 k-point 13 :  0.50000.08330.0000  plane waves:   1850
 k-point 14 :  0.16670.16670.0000  plane waves:   1855
 k-point 15 :  0.25000.16670.0000  plane waves:   1853
 k-point 16 :  0.33330.16670.0000  plane waves:   1852
 k-point 17 :  0.41670.16670.0000  plane waves:   1853
 k-point 18 :  0.50000.16670.0000  plane waves:   1840
 k-point 19 :  0.25000.25000.0000  plane waves:   1853
 k-point 20 :  0.33330.25000.0000  plane waves:   1852
 k-point 21 :  0.41670.25000.0000  plane waves:   1844
 k-point 22 :  0.50000.25000.0000  plane waves:   1852
 k-point 23 :  0.33330.33330.0000  plane waves:   1833
 k-point 24 :  0.41670.33330.0000  plane waves:   1846
 k-point 25 :  0.50000.33330.0000  plane waves:   1840
 k-point 26 :  0.41670.41670.0000  plane waves:   1846
 k-point 27 :  0.50000.41670.0000  plane waves:   1842
 k-point 28 :  0.50000.50000.0000  plane waves:   1852
 k-point 29 :  0.08330.08330.0833  plane waves:   1851
 k-point 30 :  0.16670.08330.0833  plane waves:   1849
 k-point 31 :  0.25000.08330.0833  plane waves:   1849
 k-point 32 :  0.33330.08330.0833  plane waves:   1849
 k-point 33 :  0.41670.08330.0833  plane waves:   1851
 k-point 34 :  0.50000.08330.0833  plane waves:   1846
 k-point 35 :  0.16670.16670.0833  plane waves:   1850
 k-point 36 :  0.25000.16670.0833  plane waves:   1854
 k-point 37 :  0.33330.16670.0833  plane waves:   1845
 k-point 38 :  0.41670.16670.0833  plane waves:   1849
 k-point 39 :  0.50000.16670.0833  plane waves:   1846
 k-point 40 :  0.25000.25000.0833  plane waves:   1850
 k-point 41 :  0.33330.25000.0833  plane waves:   1846
 k-point 42 :  0.41670.25000.0833  plane waves:   1844
 k-point 43 :  0.50000.25000.0833  plane waves:   1856
 k-point 44 :  0.33330.33330.0833  plane waves:   1841
 k-point 45 :  0.41670.33330.0833  plane waves:   1843
 k-point 46 :  0.50000.33330.0833  plane waves:   1854
 k-point 47 :  0.41670.41670.0833  plane waves:   1841
 k-point 48 :  0.50000.41670.0833  plane waves:   1842
 k-point 49 :  0.50000.50000.0833  plane waves:   1844
 k-point 50 :  0.16670.16670.1667  plane waves:   1845
 k-point 51 :  0.25000.16670.1667  plane waves:   1860
 k-point 52 :  0.33330.16670.1667  plane waves:   1854
 k-point 53 :  0.41670.16670.1667  plane waves:   1839
 k-point 54 :  0.50000.16670.1667  plane waves:   1852
 k-point 55 :  0.25000.25000.1667  plane waves:   1855
 k-point 56 :  0.33330.25000.1667  plane waves:   1847
 k-point 57 :  0.41670.25000.1667  plane waves:   1838
 k-point 58 :  0.50000.25000.1667  plane waves:   1850
 k-point 59 :  0.33330.33330.1667  plane waves:   1834
 k-point 60 :  0.41670.33330.1667  plane waves:   1839
[...]
 k-point 70 :  0.41670.33330.2500  plane waves:   1839
 k-point 71 :  0.50000.33330.2500  plane waves:   1828
 k-point 72 :  0.41670.41670.2500  plane waves:   1835
 k-point 73 :  0.50000.41670.2500  plane waves:   1828
 k-point 74 :  0.50000.50000.2500  plane waves:   1820
 k-point 75 :  0.33330.33330.3333  plane waves:   1830
 k-point 76 :  0.41670.33330.3333  plane waves:   1833
 k-point 77 :  0.50000.33330.3333  plane waves:   1848
 k-point 78 :  0.41670.41670.3333  plane waves:   1840
 k-point 79 :  0.50000.41670.3333  plane waves:   1836
 k-point 80 :  0.50000.50000.3333  plane waves:   1828
 k-point 81 :  0.41670.41670.4167  plane waves:   1847
 k-point 82 :  0.50000.41670.4167  plane waves:   1844
 k-point 83 :  0.50000.50000.4167  plane waves:   1860
 k-point 84 :  0.50000.50000.5000  plane waves:   1856

 maximum and minimum number of plane-waves per node :   1860  1820

 maximum number of plane-waves:   1860
 maximal index in each direction:
   IXMAX=  7   IYMAX=  7   IZMAX=  7
   IXMIN= -8   IYMIN= -8   IZMIN= -8

 WARNING: wrap around error must be expected set NGX to  32
 WARNING: wrap around error must be expected set NGY to  32
 WARNING: wrap around error must be expected set NGZ to  32

 parallel 3dFFT wavefunction:
    minimum data exchange during FFTs selected (reduces bandwidth)
 parallel 3dFFT charge:
    minimum data exchange during FFTs selected (reduces bandwidth)

Broyden mixing: mesh for mixing (old mesh)
   NGX = 15   NGY = 15   NGZ = 15
  (NGX  = 60   NGY  = 60   NGZ  = 60)
 gives a total of   3375 points
 initial charge density was supplied:
 charge density of overlapping atoms calculated
 number of electron   44.0000000 magnetization
 keeping initial charge density in first step

 Maximum index for augmentation-charges        44233 (set IRDMAX)

 First call to EWALD:  gamma=   0.425
 Maximum number of real-space cells 3x 3x 3
 Maximum number of reciprocal cells 3x 3x 3

----------------------------------------- Iteration    1(   1)  ---------------------------------------

 eigenvalue-minimisations  :  4712
 total energy-change (2. order) : 0.4359096E+03  (-0.2127797E+04)
 number of electron   44.0000000 magnetization
 augmentation part    44.0000000 magnetization

 Free energy of the ion-electron system (eV)
  alpha Z        PSCENC =       412.39861622
  Ewald energy   TEWEN  =     -3828.81821671
  -1/2 Hartree   DENC   =      -528.81443399
  -V(xc)+E(xc)   XCENC  =        60.58346864
  PAW double counting   =      2990.04966927    -2896.51663641
  entropy T*S    EENTRO =        -0.00017385
  eigenvalues    EBANDS =       522.81743155
  atomic energy  EATOM  =      3704.20985194
  free energy    TOTEN  =       435.90957666 eV

  energy without entropy =      435.90975051  energy(sigma->0) =      435.90966359

[...]

 eigenvalue-minimisations  :  4760
 total energy-change (2. order) :-0.4316056E+03  (-0.4106555E+03)
 number of electron   44.0000000 magnetization
 augmentation part    44.0000000 magnetization

[...]

 Broyden mixing:
  rms(total) = 0.57190E+00    rms(broyden)= 0.57190E+00
  rms(prec ) = 0.14455E+01
  weight for this iteration     100.00

[...]

 eigenvalues of (default mixing * dielectric matrix)
  average eigenvalue GAMMA=   1.2172
  1.2172

[...]

 eigenvalue-minimisations  :  2600
 total energy-change (2. order) : 0.4511548E-07  (-0.7587226E-10)
 number of electron   44.0000000 magnetization
 augmentation part    16.1817044 magnetization

 Broyden mixing:
  rms(total) = 0.15763E-05    rms(broyden)= 0.15761E-05
  rms(prec ) = 0.19313E-05
  weight for this iteration     100.00

 eigenvalues of (default mixing * dielectric matrix)
  average eigenvalue GAMMA=   1.8747
  3.0522  2.8277  2.4822  2.4822  1.1520  0.9904  0.9904  1.0204

[...]

----------------------------------------- Iteration    1(  14)  ---------------------------------------

 eigenvalue-minimisations  :  2512
 total energy-change (2. order) :-0.7298695E-08  (-0.6658749E-11)
 number of electron   44.0000000 magnetization
 augmentation part    16.1817044 magnetization

 Free energy of the ion-electron system (eV)
  alpha Z        PSCENC =       412.39861622
  Ewald energy   TEWEN  =     -3828.81821671
  -1/2 Hartree   DENC   =      -485.84414233
  -V(xc)+E(xc)   XCENC  =        58.65267800
  PAW double counting   =      2991.43905166    -2907.53311840
  entropy T*S    EENTRO =        -0.00007845
  eigenvalues    EBANDS =        42.40695792
  atomic energy  EATOM  =      3704.20985194
  free energy    TOTEN  =       -13.08840014 eV

  energy without entropy =      -13.08832169  energy(sigma->0) =      -13.08836092

 average (electrostatic) potential at core
  the test charge radii are     1.2098
  (the norm of the test charge is              1.0000)
       1 -46.1395       2 -46.1395       3 -46.1395       4 -46.1395

 E-fermi :   4.9264     XC(G=0): -12.3397     alpha+bet : -9.5536
   add alpha+bet to get absolut eigen values

 k-point   1 :       0.0000    0.0000    0.0000
  band No.  band energies     occupation
      1      -4.2408      2.00000
      2      -1.5820      2.00000
      3      -1.5820      2.00000
      4      -1.5820      2.00000
      5      -1.3071      2.00000
      6      -1.3071      2.00000
      7      -1.3071      2.00000
      8       0.5446      2.00000
      9       0.5446      2.00000
     10       0.5446      2.00000
     11       1.9015      2.00000
     12       1.9015      2.00000
     13       2.9340      2.00000
     14       2.9340      2.00000
     15       2.9340      2.00000
     16       3.2609      2.00000
     17       3.2609      2.00000
     18       3.2609      2.00000
     19       3.2609      2.00000
     20       3.2609      2.00000
     21       3.2609      2.00000
     22       6.1596      0.00000
     23       6.1596      0.00000
     24       6.1596      0.00000
     25      10.2759      0.00000
     26      10.2759      0.00000
     27      10.2759      0.00000
     28      14.9566      0.00000

[...]

 k-point  84 :       0.5000    0.5000    0.5000
  band No.  band energies     occupation
      1      -1.8285      2.00000
      2      -1.8285      2.00000
      3      -1.8285      2.00000
      4      -1.8285      2.00000
      5       0.5158      2.00000
      6       0.5158      2.00000
      7       0.5158      2.00000
      8       0.5158      2.00000
      9       0.5158      2.00000
     10       0.5158      2.00000
     11       0.5158      2.00000
     12       0.5158      2.00000
     13       2.9747      2.00000
     14       2.9747      2.00000
     15       2.9747      2.00000
     16       2.9747      2.00000
     17       2.9747      2.00000
     18       2.9747      2.00000
     19       2.9747      2.00000
     20       2.9747      2.00000
     21       4.2778      2.00000
     22       4.2778      2.00000
     23       4.2778      2.00000
     24       4.2778      2.00000
     25       7.7161      0.00000
     26       7.7161      0.00000
     27       7.7161      0.00000
     28       7.7161      0.00000

 soft charge-density along one line, spin component           1
         0         1         2         3         4         5         6         7         8         9
 total charge-density along one line

------------------------ aborting loop because EDIFF is reached ----------------------------------------

  FREE ENERGIE OF THE ION-ELECTRON SYSTEM (eV)
  free  energy   TOTEN  =       -13.088400 eV

  energy  without entropy=      -13.088322  energy(sigma->0) =      -13.088361

  FORCE on cell =-STRESS in cart. coord.  units (eV/reduce length):
  Direction    X        Y        Z        XY       YZ       ZX
  Alpha Z    412.40    412.40    412.40
  Ewald    -1276.27  -1276.27  -1276.27     -0.00      0.00      0.00
  Hartree    161.95    161.95    161.95     -0.00     -0.00     -0.00
  E(xc)     -198.25   -198.25   -198.25     -0.00     -0.00      0.00
  Local      317.42    317.42    317.42      0.00     -0.00      0.00
  n-local   -188.03   -204.98   -209.26      1.43      5.32      2.06
  augment    171.92    171.92    171.92      0.00      0.00      0.00
  Kinetic    615.72    611.83    607.22     -4.16     -2.04     -2.67
  Total        0.00      0.00      0.00     -0.00      0.00     -0.00
  in kB        0.00      0.00      0.00     -0.00      0.00     -0.00

 VOLUME and BASIS-vectors are now :
  energy-cutoff  :      500.00
  volume of cell :       72.66
      direct lattice vectors                 reciprocal lattice vectors
     4.172851902  0.000000000  0.000000000     0.239644259  0.000000000  0.000000000
     0.000000000  4.172851902  0.000000000     0.000000000  0.239644259  0.000000000
     0.000000000  0.000000000  4.172851902     0.000000000  0.000000000  0.239644259

  length of vectors
     4.172851902  4.172851902  4.172851902     0.239644259  0.239644259  0.239644259

 FORCES acting on ions
    electron-ion (+dipol)            ewald-force                    non-local-force                 convergence-correction
   -.201E-13 -.946E-14 -.121E-13   -.444E-14 -.517E-14 0.480E-15   -.129E-24 -.155E-24 0.000E+00   -.288E-13 -.443E-14 -.459E-13
   0.937E-13 0.161E-11 -.120E-11   -.166E-13 0.576E-14 0.316E-15   0.155E-24 -.258E-24 0.258E-25   0.156E-13 -.710E-14 -.467E-13
   0.930E-13 -.110E-13 -.298E-12   0.248E-13 -.377E-14 -.420E-16   0.000E+00 -.565E-25 -.181E-24   0.172E-13 0.106E-14 0.290E-13
   -.195E-13 0.961E-13 0.914E-13   -.431E-14 0.716E-14 -.206E-15   -.517E-25 -.252E-24 0.116E-24   -.316E-13 -.421E-14 0.267E-13
   0.147E-12 0.169E-11 -.141E-11   -.593E-15 0.397E-14 0.549E-15   -.258E-25 -.722E-24 -.388E-25   -.275E-13 -.147E-13 -.369E-13

 POSITION                                       TOTAL-FORCE (eV/Angst)
      0.00000      0.00000      0.00000         0.000000      0.000000     -0.000000
      2.08643      2.08643      0.00000        -0.000000     -0.000000     -0.000000
      2.08643      0.00000      2.08643         0.000000     -0.000000     -0.000000
      0.00000      2.08643      2.08643         0.000000      0.000000      0.000000
    total drift:                                0.000000      0.000000     -0.000000

 reached required accuracy - stopping structural energy minimisation