 vasp.4.6.28 25Jul05 complex
 executed on             LinuxIFC date 2017.01.14  05:41:58

 INCAR:
 POTCAR:   PAW_PBE Au 06Sep2000
 POTCAR:   PAW_PBE Au 06Sep2000
   VRHFIN =Au: s1d10

   TITEL  = PAW_PBE Au 06Sep2000
   POMASS =  196.966; ZVAL   =   11.000    mass and valenz
   ENMAX  =  229.948; ENMIN  =  172.461 eV
   QCUT   =   -4.111; QGAM   =    8.222    optimization parameters

   Description
     l     E      TYP  RCUT    TYP  RCUT
     2   .000     23  2.500
     2   .000     23  2.500
     0   .000     23  2.500
     0   .000     23  2.500
     1  -.200     23  2.500
     1   .000     23  2.500
     3   .000      7   .000

 WARNING: PSMAXN for non-local potential too small
          PSMAXN should be >   16.2007969712021       NTYP=           1
 PAW_PBE Au 06Sep2000                   :

 POSCAR: Au
  positions in direct lattice
  velocities in cartesian coordinates

 ion  position               nearest neighbor table
   1  0.000  0.000  0.000-   2 2.89   3 2.89   4 2.89   3 2.89   4 2.89   2 2.89   4 2.89   4 2.89
                             2 2.89   3 2.89   3 2.89   2 2.89
   2  0.500  0.500  0.000-   1 2.89   3 2.89   4 2.89   3 2.89   4 2.89   1 2.89   3 2.89   3 2.89
                             1 2.89   4 2.89   4 2.89   1 2.89
   3  0.500  0.000  0.500-   1 2.89   2 2.89   4 2.89   1 2.89   2 2.89   2 2.89   4 2.89   2 2.89
                             1 2.89   4 2.89   1 2.89   4 2.89
   4  0.000  0.500  0.500-   1 2.89   2 2.89   3 2.89   1 2.89   2 2.89   1 2.89   3 2.89   1 2.89
                             2 2.89   3 2.89   2 2.89   3 2.89

  LATTYP: Found a simple cubic cell.
 ALAT       =     4.0899922100

  Lattice vectors:

 A1 = (   4.0899922100,   0.0000000000,   0.0000000000)
 A2 = (   0.0000000000,   4.0899922100,   0.0000000000)
 A3 = (   0.0000000000,   0.0000000000,   4.0899922100)
 Subroutine PRICEL returns following result:

  LATTYP: Found a face centered cubic cell.
 ALAT       =     4.0899922100

  Lattice vectors:

 A1 = (   2.0449961050,   2.0449961050,  -0.0000000000)
 A2 = (   2.0449961050,   0.0000000000,  -2.0449961050)
 A3 = (   0.0000000000,   2.0449961050,  -2.0449961050)

   4 primitive cells build up your supercell.

Analysis of symmetry for initial positions (statically):

 Routine SETGRP: Setting up the symmetry group for a
 simple cubic supercell.

 Subroutine GETGRP returns: Found 48 space group operations
 (whereof 48 operations were pure point group operations)
 out of a pool of 48 trial point group operations.

The static configuration has the point symmetry O_h .

Analysis of symmetry for dynamics (positions and initial velocities):

 Subroutine DYNSYM returns: Found 48 space group operations
 (whereof 48 operations were pure point group operations)
 out of a pool of 48 trial space group operations
 (whereof 48 operations were pure point group operations)
 and found also     4 'primitive' translations

The dynamic configuration has the point symmetry O_h .

 KPOINTS: Automatic mesh

Automatic generation of k-mesh.

 Subroutine IBZKPT returns following result:

 Found   1330 irreducible k-points:

 Following reciprocal coordinates:
            Coordinates               Weight
  0.000000  0.000000  0.000000      1.000000
  0.027778  0.000000  0.000000      6.000000
  0.055556  0.000000  0.000000      6.000000
  0.083333  0.000000  0.000000      6.000000
  0.111111  0.000000  0.000000      6.000000
  0.138889  0.000000  0.000000      6.000000
  0.166667  0.000000  0.000000      6.000000
  0.194444  0.000000  0.000000      6.000000
  0.222222  0.000000  0.000000      6.000000
  0.250000  0.000000  0.000000      6.000000
  0.277778  0.000000  0.000000      6.000000
  0.305556  0.000000  0.000000      6.000000
  0.333333  0.000000  0.000000      6.000000
  0.361111  0.000000  0.000000      6.000000
  0.388889  0.000000  0.000000      6.000000
  0.416667  0.000000  0.000000      6.000000
  0.444444  0.000000  0.000000      6.000000
  0.472222  0.000000  0.000000      6.000000
  0.500000  0.000000  0.000000      3.000000
  0.027778  0.027778  0.000000     12.000000
  0.055556  0.027778  0.000000     24.000000
  0.083333  0.027778  0.000000     24.000000
  0.111111  0.027778  0.000000     24.000000
  0.138889  0.027778  0.000000     24.000000
  0.166667  0.027778  0.000000     24.000000
  0.194444  0.027778  0.000000     24.000000
  0.222222  0.027778  0.000000     24.000000
  0.250000  0.027778  0.000000     24.000000
  0.277778  0.027778  0.000000     24.000000
  0.305556  0.027778  0.000000     24.000000
  0.333333  0.027778  0.000000     24.000000
  0.361111  0.027778  0.000000     24.000000
  0.388889  0.027778  0.000000     24.000000
  0.416667  0.027778  0.000000     24.000000
  0.444444  0.027778  0.000000     24.000000
  0.472222  0.027778  0.000000     24.000000
  0.500000  0.027778  0.000000     12.000000
  0.055556  0.055556  0.000000     12.000000
  0.083333  0.055556  0.000000     24.000000
  0.111111  0.055556  0.000000     24.000000
  0.138889  0.055556  0.000000     24.000000
  0.166667  0.055556  0.000000     24.000000
  0.194444  0.055556  0.000000     24.000000
  0.222222  0.055556  0.000000     24.000000
  0.250000  0.055556  0.000000     24.000000
  0.277778  0.055556  0.000000     24.000000
  0.305556  0.055556  0.000000     24.000000
  0.333333  0.055556  0.000000     24.000000
  0.361111  0.055556  0.000000     24.000000
  0.388889  0.055556  0.000000     24.000000
  0.416667  0.055556  0.000000     24.000000
  0.444444  0.055556  0.000000     24.000000
  0.472222  0.055556  0.000000     24.000000
  0.500000  0.055556  0.000000     12.000000
  0.083333  0.083333  0.000000     12.000000
  0.111111  0.083333  0.000000     24.000000
  0.138889  0.083333  0.000000     24.000000
  0.166667  0.083333  0.000000     24.000000
  0.194444  0.083333  0.000000     24.000000
  0.222222  0.083333  0.000000     24.000000
[...]
  0.472222  0.444444  0.416667     48.000000
  0.500000  0.444444  0.416667     24.000000
  0.472222  0.472222  0.416667     24.000000
  0.500000  0.472222  0.416667     24.000000
  0.500000  0.500000  0.416667      6.000000
  0.444444  0.444444  0.444444      8.000000
  0.472222  0.444444  0.444444     24.000000
  0.500000  0.444444  0.444444     12.000000
  0.472222  0.472222  0.444444     24.000000
  0.500000  0.472222  0.444444     24.000000
  0.500000  0.500000  0.444444      6.000000
  0.472222  0.472222  0.472222      8.000000
  0.500000  0.472222  0.472222     12.000000
  0.500000  0.500000  0.472222      6.000000
  0.500000  0.500000  0.500000      1.000000

 Following cartesian coordinates:
            Coordinates               Weight
  0.000000  0.000000  0.000000      1.000000
  0.006656  0.000000  0.000000      6.000000
  0.013312  0.000000  0.000000      6.000000
  0.019967  0.000000  0.000000      6.000000
  0.026623  0.000000  0.000000      6.000000
  0.033279  0.000000  0.000000      6.000000
  0.039935  0.000000  0.000000      6.000000
  0.046591  0.000000  0.000000      6.000000
  0.053247  0.000000  0.000000      6.000000
  0.059902  0.000000  0.000000      6.000000
  0.066558  0.000000  0.000000      6.000000
  0.073214  0.000000  0.000000      6.000000
  0.079870  0.000000  0.000000      6.000000
  0.086526  0.000000  0.000000      6.000000
  0.093181  0.000000  0.000000      6.000000
  0.099837  0.000000  0.000000      6.000000
  0.106493  0.000000  0.000000      6.000000
  0.113149  0.000000  0.000000      6.000000
  0.119805  0.000000  0.000000      3.000000
  0.006656  0.006656  0.000000     12.000000
  0.013312  0.006656  0.000000     24.000000
  0.019967  0.006656  0.000000     24.000000
  0.026623  0.006656  0.000000     24.000000
  0.033279  0.006656  0.000000     24.000000
  0.039935  0.006656  0.000000     24.000000
  0.046591  0.006656  0.000000     24.000000
  0.053247  0.006656  0.000000     24.000000
  0.059902  0.006656  0.000000     24.000000
  0.066558  0.006656  0.000000     24.000000
  0.073214  0.006656  0.000000     24.000000
  0.079870  0.006656  0.000000     24.000000
  0.086526  0.006656  0.000000     24.000000
  0.093181  0.006656  0.000000     24.000000
  0.099837  0.006656  0.000000     24.000000
  0.106493  0.006656  0.000000     24.000000
  0.113149  0.006656  0.000000     24.000000
  0.119805  0.006656  0.000000     12.000000
  0.013312  0.013312  0.000000     12.000000
  0.019967  0.013312  0.000000     24.000000
  0.026623  0.013312  0.000000     24.000000
  0.033279  0.013312  0.000000     24.000000
  0.039935  0.013312  0.000000     24.000000
  0.046591  0.013312  0.000000     24.000000
  0.053247  0.013312  0.000000     24.000000
  0.059902  0.013312  0.000000     24.000000
  0.066558  0.013312  0.000000     24.000000
  0.073214  0.013312  0.000000     24.000000
  0.079870  0.013312  0.000000     24.000000
  0.086526  0.013312  0.000000     24.000000
  0.093181  0.013312  0.000000     24.000000
  0.099837  0.013312  0.000000     24.000000
  0.106493  0.013312  0.000000     24.000000
  0.113149  0.013312  0.000000     24.000000
  0.119805  0.013312  0.000000     12.000000
  0.019967  0.019967  0.000000     12.000000
  0.026623  0.019967  0.000000     24.000000
  0.033279  0.019967  0.000000     24.000000
  0.039935  0.019967  0.000000     24.000000
  0.046591  0.019967  0.000000     24.000000
  0.053247  0.019967  0.000000     24.000000
[...]
  0.113149  0.106493  0.099837     48.000000
  0.119805  0.106493  0.099837     24.000000
  0.113149  0.113149  0.099837     24.000000
  0.119805  0.113149  0.099837     24.000000
  0.119805  0.119805  0.099837      6.000000
  0.106493  0.106493  0.106493      8.000000
  0.113149  0.106493  0.106493     24.000000
  0.119805  0.106493  0.106493     12.000000
  0.113149  0.113149  0.106493     24.000000
  0.119805  0.113149  0.106493     24.000000
  0.119805  0.119805  0.106493      6.000000
  0.113149  0.113149  0.113149      8.000000
  0.119805  0.113149  0.113149     12.000000
  0.119805  0.119805  0.113149      6.000000
  0.119805  0.119805  0.119805      1.000000

 I would recommend the setting:
   dimension x,y,z NGX =    42 NGY =   42 NGZ =   42
 SYSTEM =  unknown system
 POSCAR =  Au

 Startparameter for this run:
   NWRITE =      2    write-flag & timer
   PREC   = accura    medium, high low
   ISTART =      0    job   : 0-new  1-cont  2-samecut
   ICHARG =      2    charge: 1-file 2-atom 10-const
   ISPIN  =      1    spin polarized calculation?
   LNONCOLLINEAR =      F non collinear calculations
   LSORBIT =      F    spin-orbit coupling
   INIWAV =      1    electr: 0-lowe 1-rand  2-diag
   LASPH  =      F    aspherical Exc in radial PAW
   METAGGA=      F    non-selfconsistent MetaGGA calc.

 Electronic Relaxation 1
   ENCUT  = 1000.0 eV  73.50 Ry    8.57 a.u.  10.55 10.55 10.55*2*pi/ulx,y,z
   ENINI  = 1000.0     initial cutoff
   ENAUG  =  356.7 eV  augmentation charge cutoff
   NELM   =     60;   NELMIN=  2; NELMDL=  0     # of ELM steps
   EDIFF  = 0.1E-07   stopping-criterion for ELM
   LREAL  =      F    real-space projection
   LCOMPAT=      F    compatible to vasp.4.4
   LREAL_COMPAT= F    compatible to vasp.4.5.1-3
   GGA_COMPAT  = T    GGA compatible to vasp.4.4-vasp.4.6
[...]
 k-point 34 :  0.41670.02780.0000  plane waves:   4924
 k-point 35 :  0.44440.02780.0000  plane waves:   4931
 k-point 36 :  0.47220.02780.0000  plane waves:   4934
 k-point 37 :  0.50000.02780.0000  plane waves:   4930
 k-point 38 :  0.05560.05560.0000  plane waves:   4917
 k-point 39 :  0.08330.05560.0000  plane waves:   4919
 k-point 40 :  0.11110.05560.0000  plane waves:   4914
 k-point 41 :  0.13890.05560.0000  plane waves:   4919
 k-point 42 :  0.16670.05560.0000  plane waves:   4910
 k-point 43 :  0.19440.05560.0000  plane waves:   4920
 k-point 44 :  0.22220.05560.0000  plane waves:   4911
 k-point 45 :  0.25000.05560.0000  plane waves:   4915
 k-point 46 :  0.27780.05560.0000  plane waves:   4919
 k-point 47 :  0.30560.05560.0000  plane waves:   4920
 k-point 48 :  0.33330.05560.0000  plane waves:   4915
 k-point 49 :  0.36110.05560.0000  plane waves:   4922
 k-point 50 :  0.38890.05560.0000  plane waves:   4930
 k-point 51 :  0.41670.05560.0000  plane waves:   4924
 k-point 52 :  0.44440.05560.0000  plane waves:   4934
 k-point 53 :  0.47220.05560.0000  plane waves:   4929
 k-point 54 :  0.50000.05560.0000  plane waves:   4924
 k-point 55 :  0.08330.08330.0000  plane waves:   4923
 k-point 56 :  0.11110.08330.0000  plane waves:   4915
 k-point 57 :  0.13890.08330.0000  plane waves:   4924
 k-point 58 :  0.16670.08330.0000  plane waves:   4922
 k-point 59 :  0.19440.08330.0000  plane waves:   4917
 k-point 60 :  0.22220.08330.0000  plane waves:   4908
[...]
 k-point 85 :  0.50000.11110.0000  plane waves:   4932
 k-point 86 :  0.13890.13890.0000  plane waves:   4927
 k-point 87 :  0.16670.13890.0000  plane waves:   4918
 k-point 88 :  0.19440.13890.0000  plane waves:   4915
 k-point 89 :  0.22220.13890.0000  plane waves:   4916
 k-point 90 :  0.25000.13890.0000  plane waves:   4914
 k-point 91 :  0.27780.13890.0000  plane waves:   4922
 k-point 92 :  0.30560.13890.0000  plane waves:   4923
 k-point 93 :  0.33330.13890.0000  plane waves:   4920
 k-point 94 :  0.36110.13890.0000  plane waves:   4915
 k-point 95 :  0.38890.13890.0000  plane waves:   4920
 k-point 96 :  0.41670.13890.0000  plane waves:   4928
 k-point 97 :  0.44440.13890.0000  plane waves:   4927
 k-point 98 :  0.47220.13890.0000  plane waves:   4924
 k-point 99 :  0.50000.13890.0000  plane waves:   4920
 k-point ** :  0.16670.16670.0000  plane waves:   4921
 k-point ** :  0.19440.16670.0000  plane waves:   4928
 k-point ** :  0.22220.16670.0000  plane waves:   4931
 k-point ** :  0.25000.16670.0000  plane waves:   4926
 k-point ** :  0.27780.16670.0000  plane waves:   4921
 k-point ** :  0.30560.16670.0000  plane waves:   4927
 k-point ** :  0.33330.16670.0000  plane waves:   4934
 k-point ** :  0.36110.16670.0000  plane waves:   4914
 k-point ** :  0.38890.16670.0000  plane waves:   4924
 k-point ** :  0.41670.16670.0000  plane waves:   4932
 k-point ** :  0.44440.16670.0000  plane waves:   4926
 k-point ** :  0.47220.16670.0000  plane waves:   4926
 k-point ** :  0.50000.16670.0000  plane waves:   4912
 k-point ** :  0.19440.19440.0000  plane waves:   4933
 k-point ** :  0.22220.19440.0000  plane waves:   4931
 k-point ** :  0.25000.19440.0000  plane waves:   4935
 k-point ** :  0.27780.19440.0000  plane waves:   4925
 k-point ** :  0.30560.19440.0000  plane waves:   4925
 k-point ** :  0.33330.19440.0000  plane waves:   4931
 k-point ** :  0.36110.19440.0000  plane waves:   4921
 k-point ** :  0.38890.19440.0000  plane waves:   4919
 k-point ** :  0.41670.19440.0000  plane waves:   4926
 k-point ** :  0.44440.19440.0000  plane waves:   4922
 k-point ** :  0.47220.19440.0000  plane waves:   4918
 k-point ** :  0.50000.19440.0000  plane waves:   4908
 k-point ** :  0.22220.22220.0000  plane waves:   4927
 k-point ** :  0.25000.22220.0000  plane waves:   4933
 k-point ** :  0.27780.22220.0000  plane waves:   4921
 k-point ** :  0.30560.22220.0000  plane waves:   4923
 k-point ** :  0.33330.22220.0000  plane waves:   4925
 k-point ** :  0.36110.22220.0000  plane waves:   4920
 k-point ** :  0.38890.22220.0000  plane waves:   4920
 k-point ** :  0.41670.22220.0000  plane waves:   4920
 k-point ** :  0.44440.22220.0000  plane waves:   4922
 k-point ** :  0.47220.22220.0000  plane waves:   4909
 k-point ** :  0.50000.22220.0000  plane waves:   4916
 k-point ** :  0.25000.25000.0000  plane waves:   4943
 k-point ** :  0.27780.25000.0000  plane waves:   4929
 k-point ** :  0.30560.25000.0000  plane waves:   4918
 k-point ** :  0.33330.25000.0000  plane waves:   4922
 k-point ** :  0.36110.25000.0000  plane waves:   4930
 k-point ** :  0.38890.25000.0000  plane waves:   4920
 k-point ** :  0.41670.25000.0000  plane waves:   4918
 k-point ** :  0.44440.25000.0000  plane waves:   4917
 k-point ** :  0.47220.25000.0000  plane waves:   4911
 k-point ** :  0.50000.25000.0000  plane waves:   4888
 k-point ** :  0.27780.27780.0000  plane waves:   4923
 k-point ** :  0.30560.27780.0000  plane waves:   4924
 k-point ** :  0.33330.27780.0000  plane waves:   4924
 k-point ** :  0.36110.27780.0000  plane waves:   4923
 k-point ** :  0.38890.27780.0000  plane waves:   4915
 k-point ** :  0.41670.27780.0000  plane waves:   4912
 k-point ** :  0.44440.27780.0000  plane waves:   4913
 k-point ** :  0.47220.27780.0000  plane waves:   4914
 k-point ** :  0.50000.27780.0000  plane waves:   4904
 k-point ** :  0.30560.30560.0000  plane waves:   4921
 k-point ** :  0.33330.30560.0000  plane waves:   4927
 k-point ** :  0.36110.30560.0000  plane waves:   4913
 k-point ** :  0.38890.30560.0000  plane waves:   4916
 k-point ** :  0.41670.30560.0000  plane waves:   4912
[...]
 k-point ** :  0.47220.44440.4167  plane waves:   4872
 k-point ** :  0.50000.44440.4167  plane waves:   4870
 k-point ** :  0.47220.47220.4167  plane waves:   4863
 k-point ** :  0.50000.47220.4167  plane waves:   4868
 k-point ** :  0.50000.50000.4167  plane waves:   4868
 k-point ** :  0.44440.44440.4444  plane waves:   4857
 k-point ** :  0.47220.44440.4444  plane waves:   4854
 k-point ** :  0.50000.44440.4444  plane waves:   4862
 k-point ** :  0.47220.47220.4444  plane waves:   4854
 k-point ** :  0.50000.47220.4444  plane waves:   4852
 k-point ** :  0.50000.50000.4444  plane waves:   4860
 k-point ** :  0.47220.47220.4722  plane waves:   4860
 k-point ** :  0.50000.47220.4722  plane waves:   4864
 k-point ** :  0.50000.50000.4722  plane waves:   4884
 k-point ** :  0.50000.50000.5000  plane waves:   4896

 maximum and minimum number of plane-waves per node :   4948  4844

 maximum number of plane-waves:   4948
 maximal index in each direction:
   IXMAX= 10   IYMAX= 10   IZMAX= 10
   IXMIN=-11   IYMIN=-11   IZMIN=-11

 WARNING: wrap around error must be expected set NGX to  44
 WARNING: wrap around error must be expected set NGY to  44
 WARNING: wrap around error must be expected set NGZ to  44

 parallel 3dFFT wavefunction:
    minimum data exchange during FFTs selected (reduces bandwidth)
 parallel 3dFFT charge:
    minimum data exchange during FFTs selected (reduces bandwidth)

Broyden mixing: mesh for mixing (old mesh)
   NGX = 21   NGY = 21   NGZ = 21
  (NGX  = 84   NGY  = 84   NGZ  = 84)
 gives a total of   9261 points
 initial charge density was supplied:
 charge density of overlapping atoms calculated
 number of electron   44.0000000 magnetization
 keeping initial charge density in first step

 Maximum index for augmentation-charges        64428 (set IRDMAX)

 First call to EWALD:  gamma=   0.433
 Maximum number of real-space cells 3x 3x 3
 Maximum number of reciprocal cells 3x 3x 3

----------------------------------------- Iteration    1(   1)  ---------------------------------------

 eigenvalue-minimisations  : 85120
 total energy-change (2. order) : 0.6137574E+03  (-0.3188795E+04)
 number of electron   44.0000000 magnetization
 augmentation part    44.0000000 magnetization

 Free energy of the ion-electron system (eV)
  alpha Z        PSCENC =       437.97434469
  Ewald energy   TEWEN  =     -3906.38675057
  -1/2 Hartree   DENC   =      -497.47373734
  -V(xc)+E(xc)   XCENC  =        61.41788053
  PAW double counting   =      2990.04966927    -2896.51663641
  entropy T*S    EENTRO =        -0.00011750
  eigenvalues    EBANDS =       720.46706828
  atomic energy  EATOM  =      3704.22571103
  free energy    TOTEN  =       613.75743198 eV

  energy without entropy =      613.75754948  energy(sigma->0) =      613.75749073

[...]

 eigenvalue-minimisations  : 85152
 total energy-change (2. order) :-0.6070758E+03  (-0.5644826E+03)
 number of electron   44.0000000 magnetization
 augmentation part    44.0000000 magnetization

[...]

 eigenvalue-minimisations  :100344
 total energy-change (2. order) :-0.2044820E+02  (-0.2005308E+02)
 number of electron   44.0000000 magnetization
 augmentation part    44.0000000 magnetization

[...]

 Broyden mixing:
  rms(total) = 0.58345E+00    rms(broyden)= 0.58345E+00
  rms(prec ) = 0.14758E+01
  weight for this iteration     100.00

[...]

 eigenvalues of (default mixing * dielectric matrix)
  average eigenvalue GAMMA=   1.2653
  1.2653

[...]

 eigenvalue-minimisations  :102784
 total energy-change (2. order) : 0.7386551E-01  (-0.1538007E-01)
 number of electron   44.0000001 magnetization
 augmentation part    16.1305821 magnetization

[...]

 eigenvalue-minimisations  :101480
 total energy-change (2. order) :-0.1781505E-05  (-0.4324112E-07)
 number of electron   44.0000001 magnetization
 augmentation part    16.1311129 magnetization

[...]

 eigenvalue-minimisations  : 62856
 total energy-change (2. order) : 0.1022790E-06  (-0.1559803E-09)
 number of electron   44.0000001 magnetization
 augmentation part    16.1310992 magnetization

 Broyden mixing:
  rms(total) = 0.15198E-05    rms(broyden)= 0.15198E-05
  rms(prec ) = 0.22572E-05
  weight for this iteration     100.00

 eigenvalues of (default mixing * dielectric matrix)
  average eigenvalue GAMMA=   1.8423
  2.9358  2.7433  2.4346  2.4346  1.1871  0.9831  0.9831  1.0370

[...]

----------------------------------------- Iteration    1(  14)  ---------------------------------------

 eigenvalue-minimisations  : 55576
 total energy-change (2. order) :-0.8130883E-08  (-0.1459590E-10)
 number of electron   44.0000001 magnetization
 augmentation part    16.1310992 magnetization

 Free energy of the ion-electron system (eV)
  alpha Z        PSCENC =       437.97434469
  Ewald energy   TEWEN  =     -3906.38675057
  -1/2 Hartree   DENC   =      -454.23079397
  -V(xc)+E(xc)   XCENC  =        59.49195990
  PAW double counting   =      3024.50117535    -2941.88228112
  entropy T*S    EENTRO =        -0.00004528
  eigenvalues    EBANDS =        63.34365658
  atomic energy  EATOM  =      3704.22571103
  free energy    TOTEN  =       -12.96302339 eV

  energy without entropy =      -12.96297811  energy(sigma->0) =      -12.96300075

 average (electrostatic) potential at core
  the test charge radii are     1.2098
  (the norm of the test charge is              1.0000)
       1 -45.5986       2 -45.5986       3 -45.5986       4 -45.5986

 E-fermi :   5.7107     XC(G=0): -12.6977     alpha+bet :-10.1460
   add alpha+bet to get absolut eigen values

 k-point   1 :       0.0000    0.0000    0.0000
  band No.  band energies     occupation
      1      -4.1088      2.00000
      2      -1.3723      2.00000
      3      -1.3723      2.00000
      4      -1.3723      2.00000
      5      -1.0667      2.00000
      6      -1.0667      2.00000
      7      -1.0667      2.00000
      8       0.9824      2.00000
      9       0.9824      2.00000
     10       0.9824      2.00000
     11       2.4922      2.00000
     12       2.4922      2.00000
     13       3.6420      2.00000
     14       3.6420      2.00000
     15       3.6420      2.00000
     16       4.0050      2.00000
     17       4.0050      2.00000
     18       4.0050      2.00000
     19       4.0050      2.00000
     20       4.0050      2.00000
     21       4.0050      2.00000
     22       6.7471      0.00000
     23       6.7471      0.00000
     24       6.7471      0.00000
     25      11.4978      0.00000
     26      11.4978      0.00000
     27      11.4978      0.00000
     28      15.9156      0.00000
     29      15.9156      0.00000
     30      15.9156      0.00000
     31      15.9156      0.00000
     32      15.9156      0.00000

[...]

 k-point *** :       0.5000    0.5000    0.5000
  band No.  band energies     occupation
      1      -1.6101      2.00000
      2      -1.6101      2.00000
      3      -1.6101      2.00000
      4      -1.6101      2.00000
      5       0.9464      2.00000
      6       0.9464      2.00000
      7       0.9464      2.00000
      8       0.9464      2.00000
      9       0.9464      2.00000
     10       0.9464      2.00000
     11       0.9464      2.00000
     12       0.9464      2.00000
     13       3.6853      2.00000
     14       3.6853      2.00000
     15       3.6853      2.00000
     16       3.6853      2.00000
     17       3.6853      2.00000
     18       3.6853      2.00000
     19       3.6853      2.00000
     20       3.6853      2.00000
     21       4.7538      2.00000
     22       4.7538      2.00000
     23       4.7538      2.00000
     24       4.7538      2.00000
     25       8.7769      0.00000
     26       8.7769      0.00000
     27       8.7769      0.00000
     28       8.7769      0.00000
     29      20.3189      0.00000
     30      20.3189      0.00000
     31      20.3189      0.00000
     32      20.3189      0.00000

 soft charge-density along one line, spin component           1
         0         1         2         3         4         5         6         7         8         9
 total charge-density along one line

------------------------ aborting loop because EDIFF is reached ----------------------------------------

  FREE ENERGIE OF THE ION-ELECTRON SYSTEM (eV)
  free  energy   TOTEN  =       -12.963023 eV

  energy  without entropy=      -12.962978  energy(sigma->0) =      -12.963001

  FORCE on cell =-STRESS in cart. coord.  units (eV/reduce length):
  Direction    X        Y        Z        XY       YZ       ZX
  Alpha Z    437.97    437.97    437.97
  Ewald    -1302.13  -1302.13  -1302.13     -0.00     -0.00     -0.00
  Hartree    151.41    151.41    151.41     -0.00     -0.00     -0.00
  E(xc)     -199.04   -199.04   -199.04      0.00     -0.00      0.00
  Local      327.08    327.08    327.08     -0.00     -0.00     -0.00
  n-local   -182.30   -200.36   -204.75      1.50      5.63      2.21
  augment    171.63    171.63    171.63     -0.00     -0.00     -0.00
  Kinetic    617.34    613.49    608.52     -4.72     -2.58     -3.22
  Total        4.24      4.24      4.24     -0.00     -0.00      0.00
  in kB       99.24     99.24     99.24     -0.00     -0.00      0.00

 VOLUME and BASIS-vectors are now :
  energy-cutoff  :     1000.00
  volume of cell :       68.42
      direct lattice vectors                 reciprocal lattice vectors
     4.089992210  0.000000000  0.000000000     0.244499243  0.000000000  0.000000000
     0.000000000  4.089992210  0.000000000     0.000000000  0.244499243  0.000000000
     0.000000000  0.000000000  4.089992210     0.000000000  0.000000000  0.244499243

  length of vectors
     4.089992210  4.089992210  4.089992210     0.244499243  0.244499243  0.244499243

 FORCES acting on ions
    electron-ion (+dipol)            ewald-force                    non-local-force                 convergence-correction
   0.201E-14 -.930E-14 -.406E-13   -.174E-13 -.154E-13 -.871E-15   -.106E-25 -.398E-26 -.159E-25   0.320E-14 0.169E-13 0.111E-13
   0.198E-12 -.127E-11 0.355E-12   -.117E-13 -.152E-13 -.759E-15   -.993E-26 -.224E-25 -.318E-26   -.244E-13 -.261E-13 0.165E-13
   0.198E-12 -.786E-14 -.240E-12   0.192E-13 0.120E-13 0.674E-15   0.133E-25 -.904E-26 -.145E-25   -.240E-13 0.109E-13 -.272E-13
   0.205E-14 0.188E-12 0.164E-12   0.731E-14 0.122E-13 0.786E-15   0.108E-25 -.262E-26 -.902E-26   0.270E-14 -.180E-13 -.299E-13
   0.400E-12 -.110E-11 0.238E-12   -.268E-14 -.636E-14 -.170E-15   0.365E-26 -.381E-25 -.426E-25   -.425E-13 -.163E-13 -.295E-13

 POSITION                                       TOTAL-FORCE (eV/Angst)
      0.00000      0.00000      0.00000         0.000000     -0.000000     -0.000000
      2.04500      2.04500      0.00000         0.000000     -0.000000     -0.000000
      2.04500      0.00000      2.04500         0.000000     -0.000000     -0.000000
      0.00000      2.04500      2.04500         0.000000     -0.000000     -0.000000
    total drift:                                0.000000     -0.000000      0.000000

 mean value of Nose-termostat <S>:     1.000 mean value of <T> :     0.000
 mean temperature <T/S>/<1/S>  :     0.000