 vasp.4.6.28 25Jul05 complex
 executed on             LinuxIFC date 2017.01.06  05:51:12

 INCAR:
 POTCAR:   PAW_PBE Ag 06Sep2000
 POTCAR:   PAW_PBE Ag 06Sep2000
   VRHFIN =Ag : s1 d10

   TITEL  = PAW_PBE Ag 06Sep2000
   POMASS =  107.868; ZVAL   =   11.000    mass and valenz
   ENMAX  =  249.846; ENMIN  =  187.385 eV
   QCUT   =   -4.285; QGAM   =    8.570    optimization parameters

   Description
     l     E      TYP  RCUT    TYP  RCUT
     2   .000     23  2.400
     2   .000     23  2.400
     0   .000     23  2.400
     0   .000     23  2.400
     1  -.200     23  2.400
     1  1.500     23  2.400
     3   .000      7   .000

 PAW_PBE Ag 06Sep2000                   :

 POSCAR: Ag
  positions in direct lattice
  velocities in cartesian coordinates

 ion  position               nearest neighbor table
   1  0.000  0.000  0.000-   2 3.24   3 3.24   4 3.24   3 3.24   4 3.24   2 3.24   4 3.24   4 3.24
                             2 3.24   3 3.24   3 3.24   2 3.24
   2  0.500  0.500  0.000-   1 3.24   3 3.24   4 3.24   3 3.24   4 3.24   1 3.24   3 3.24   3 3.24
                             1 3.24   4 3.24   4 3.24   1 3.24
   3  0.500  0.000  0.500-   1 3.24   2 3.24   4 3.24   1 3.24   2 3.24   2 3.24   4 3.24   2 3.24
                             1 3.24   4 3.24   1 3.24   4 3.24
   4  0.000  0.500  0.500-   1 3.24   2 3.24   3 3.24   1 3.24   2 3.24   1 3.24   3 3.24   1 3.24
                             2 3.24   3 3.24   2 3.24   3 3.24

  LATTYP: Found a simple cubic cell.
 ALAT       =     4.5795472598

  Lattice vectors:

 A1 = (   4.5795472598,   0.0000000000,   0.0000000000)
 A2 = (   0.0000000000,   4.5795472598,   0.0000000000)
 A3 = (   0.0000000000,   0.0000000000,   4.5795472598)
 Subroutine PRICEL returns following result:

  LATTYP: Found a face centered cubic cell.
 ALAT       =     4.5795472598

  Lattice vectors:

 A1 = (   2.2897736299,   2.2897736299,  -0.0000000000)
 A2 = (   2.2897736299,   0.0000000000,  -2.2897736299)
 A3 = (   0.0000000000,   2.2897736299,  -2.2897736299)

   4 primitive cells build up your supercell.

Analysis of symmetry for initial positions (statically):

 Routine SETGRP: Setting up the symmetry group for a
 simple cubic supercell.

 Subroutine GETGRP returns: Found 48 space group operations
 (whereof 48 operations were pure point group operations)
 out of a pool of 48 trial point group operations.

The static configuration has the point symmetry O_h .

Analysis of symmetry for dynamics (positions and initial velocities):

 Subroutine DYNSYM returns: Found 48 space group operations
 (whereof 48 operations were pure point group operations)
 out of a pool of 48 trial space group operations
 (whereof 48 operations were pure point group operations)
 and found also     4 'primitive' translations

The dynamic configuration has the point symmetry O_h .

 KPOINTS: Automatic mesh

Automatic generation of k-mesh.

 Subroutine IBZKPT returns following result:

 Found     84 irreducible k-points:

 Following reciprocal coordinates:
            Coordinates               Weight
  0.000000  0.000000  0.000000      1.000000
  0.083333  0.000000  0.000000      6.000000
  0.166667  0.000000  0.000000      6.000000
  0.250000  0.000000  0.000000      6.000000
  0.333333  0.000000  0.000000      6.000000
  0.416667  0.000000  0.000000      6.000000
  0.500000  0.000000  0.000000      3.000000
  0.083333  0.083333  0.000000     12.000000
  0.166667  0.083333  0.000000     24.000000
  0.250000  0.083333  0.000000     24.000000
  0.333333  0.083333  0.000000     24.000000
  0.416667  0.083333  0.000000     24.000000
  0.500000  0.083333  0.000000     12.000000
  0.166667  0.166667  0.000000     12.000000
  0.250000  0.166667  0.000000     24.000000
  0.333333  0.166667  0.000000     24.000000
  0.416667  0.166667  0.000000     24.000000
  0.500000  0.166667  0.000000     12.000000
  0.250000  0.250000  0.000000     12.000000
  0.333333  0.250000  0.000000     24.000000
  0.416667  0.250000  0.000000     24.000000
  0.500000  0.250000  0.000000     12.000000
  0.333333  0.333333  0.000000     12.000000
  0.416667  0.333333  0.000000     24.000000
  0.500000  0.333333  0.000000     12.000000
  0.416667  0.416667  0.000000     12.000000
  0.500000  0.416667  0.000000     12.000000
  0.500000  0.500000  0.000000      3.000000
  0.083333  0.083333  0.083333      8.000000
  0.166667  0.083333  0.083333     24.000000
  0.250000  0.083333  0.083333     24.000000
  0.333333  0.083333  0.083333     24.000000
  0.416667  0.083333  0.083333     24.000000
  0.500000  0.083333  0.083333     12.000000
  0.166667  0.166667  0.083333     24.000000
  0.250000  0.166667  0.083333     48.000000
  0.333333  0.166667  0.083333     48.000000
  0.416667  0.166667  0.083333     48.000000
  0.500000  0.166667  0.083333     24.000000
  0.250000  0.250000  0.083333     24.000000
  0.333333  0.250000  0.083333     48.000000
  0.416667  0.250000  0.083333     48.000000
  0.500000  0.250000  0.083333     24.000000
  0.333333  0.333333  0.083333     24.000000
  0.416667  0.333333  0.083333     48.000000
  0.500000  0.333333  0.083333     24.000000
  0.416667  0.416667  0.083333     24.000000
  0.500000  0.416667  0.083333     24.000000
  0.500000  0.500000  0.083333      6.000000
  0.166667  0.166667  0.166667      8.000000
  0.250000  0.166667  0.166667     24.000000
  0.333333  0.166667  0.166667     24.000000
  0.416667  0.166667  0.166667     24.000000
  0.500000  0.166667  0.166667     12.000000
  0.250000  0.250000  0.166667     24.000000
  0.333333  0.250000  0.166667     48.000000
  0.416667  0.250000  0.166667     48.000000
  0.500000  0.250000  0.166667     24.000000
  0.333333  0.333333  0.166667     24.000000
  0.416667  0.333333  0.166667     48.000000
[...]
  0.416667  0.333333  0.250000     48.000000
  0.500000  0.333333  0.250000     24.000000
  0.416667  0.416667  0.250000     24.000000
  0.500000  0.416667  0.250000     24.000000
  0.500000  0.500000  0.250000      6.000000
  0.333333  0.333333  0.333333      8.000000
  0.416667  0.333333  0.333333     24.000000
  0.500000  0.333333  0.333333     12.000000
  0.416667  0.416667  0.333333     24.000000
  0.500000  0.416667  0.333333     24.000000
  0.500000  0.500000  0.333333      6.000000
  0.416667  0.416667  0.416667      8.000000
  0.500000  0.416667  0.416667     12.000000
  0.500000  0.500000  0.416667      6.000000
  0.500000  0.500000  0.500000      1.000000

 Following cartesian coordinates:
            Coordinates               Weight
  0.000000  0.000000  0.000000      1.000000
  0.020017  0.000000  0.000000      6.000000
  0.040033  0.000000  0.000000      6.000000
  0.060050  0.000000  0.000000      6.000000
  0.080066  0.000000  0.000000      6.000000
  0.100083  0.000000  0.000000      6.000000
  0.120099  0.000000  0.000000      3.000000
  0.020017  0.020017  0.000000     12.000000
  0.040033  0.020017  0.000000     24.000000
  0.060050  0.020017  0.000000     24.000000
  0.080066  0.020017  0.000000     24.000000
  0.100083  0.020017  0.000000     24.000000
  0.120099  0.020017  0.000000     12.000000
  0.040033  0.040033  0.000000     12.000000
  0.060050  0.040033  0.000000     24.000000
  0.080066  0.040033  0.000000     24.000000
  0.100083  0.040033  0.000000     24.000000
  0.120099  0.040033  0.000000     12.000000
  0.060050  0.060050  0.000000     12.000000
  0.080066  0.060050  0.000000     24.000000
  0.100083  0.060050  0.000000     24.000000
  0.120099  0.060050  0.000000     12.000000
  0.080066  0.080066  0.000000     12.000000
  0.100083  0.080066  0.000000     24.000000
  0.120099  0.080066  0.000000     12.000000
  0.100083  0.100083  0.000000     12.000000
  0.120099  0.100083  0.000000     12.000000
  0.120099  0.120099  0.000000      3.000000
  0.020017  0.020017  0.020017      8.000000
  0.040033  0.020017  0.020017     24.000000
  0.060050  0.020017  0.020017     24.000000
  0.080066  0.020017  0.020017     24.000000
  0.100083  0.020017  0.020017     24.000000
  0.120099  0.020017  0.020017     12.000000
  0.040033  0.040033  0.020017     24.000000
  0.060050  0.040033  0.020017     48.000000
  0.080066  0.040033  0.020017     48.000000
  0.100083  0.040033  0.020017     48.000000
  0.120099  0.040033  0.020017     24.000000
  0.060050  0.060050  0.020017     24.000000
  0.080066  0.060050  0.020017     48.000000
  0.100083  0.060050  0.020017     48.000000
  0.120099  0.060050  0.020017     24.000000
  0.080066  0.080066  0.020017     24.000000
  0.100083  0.080066  0.020017     48.000000
  0.120099  0.080066  0.020017     24.000000
  0.100083  0.100083  0.020017     24.000000
  0.120099  0.100083  0.020017     24.000000
  0.120099  0.120099  0.020017      6.000000
  0.040033  0.040033  0.040033      8.000000
  0.060050  0.040033  0.040033     24.000000
  0.080066  0.040033  0.040033     24.000000
  0.100083  0.040033  0.040033     24.000000
  0.120099  0.040033  0.040033     12.000000
  0.060050  0.060050  0.040033     24.000000
  0.080066  0.060050  0.040033     48.000000
  0.100083  0.060050  0.040033     48.000000
  0.120099  0.060050  0.040033     24.000000
  0.080066  0.080066  0.040033     24.000000
  0.100083  0.080066  0.040033     48.000000
[...]
  0.100083  0.080066  0.060050     48.000000
  0.120099  0.080066  0.060050     24.000000
  0.100083  0.100083  0.060050     24.000000
  0.120099  0.100083  0.060050     24.000000
  0.120099  0.120099  0.060050      6.000000
  0.080066  0.080066  0.080066      8.000000
  0.100083  0.080066  0.080066     24.000000
  0.120099  0.080066  0.080066     12.000000
  0.100083  0.100083  0.080066     24.000000
  0.120099  0.100083  0.080066     24.000000
  0.120099  0.120099  0.080066      6.000000
  0.100083  0.100083  0.100083      8.000000
  0.120099  0.100083  0.100083     12.000000
  0.120099  0.120099  0.100083      6.000000
  0.120099  0.120099  0.120099      1.000000

 I would recommend the setting:
   dimension x,y,z NGX =    41 NGY =   41 NGZ =   41
 SYSTEM =  unknown system
 POSCAR =  Ag

 Startparameter for this run:
   NWRITE =      2    write-flag & timer
   PREC   = accura    medium, high low
   ISTART =      0    job   : 0-new  1-cont  2-samecut
   ICHARG =      2    charge: 1-file 2-atom 10-const
   ISPIN  =      1    spin polarized calculation?
   LNONCOLLINEAR =      F non collinear calculations
   LSORBIT =      F    spin-orbit coupling
   INIWAV =      1    electr: 0-lowe 1-rand  2-diag
   LASPH  =      F    aspherical Exc in radial PAW
   METAGGA=      F    non-selfconsistent MetaGGA calc.

 Electronic Relaxation 1
   ENCUT  =  750.0 eV  55.12 Ry    7.42 a.u.  10.23 10.23 10.23*2*pi/ulx,y,z
   ENINI  =  750.0     initial cutoff
   ENAUG  =  412.5 eV  augmentation charge cutoff
   NELM   =     60;   NELMIN=  2; NELMDL= -5     # of ELM steps
   EDIFF  = 0.1E-07   stopping-criterion for ELM
   LREAL  =      F    real-space projection
   LCOMPAT=      F    compatible to vasp.4.4
   LREAL_COMPAT= F    compatible to vasp.4.5.1-3
   GGA_COMPAT  = T    GGA compatible to vasp.4.4-vasp.4.6
   LMAXPAW     = -100 max onsite density
   LMAXMIX     =    2 max onsite mixed and CHGCAR
[...]
   0.25000000  0.25000000  0.00000000       0.007
   0.33333333  0.25000000  0.00000000       0.014
   0.41666667  0.25000000  0.00000000       0.014
   0.50000000  0.25000000  0.00000000       0.007
   0.33333333  0.33333333  0.00000000       0.007
   0.41666667  0.33333333  0.00000000       0.014
   0.50000000  0.33333333  0.00000000       0.007
   0.41666667  0.41666667  0.00000000       0.007
   0.50000000  0.41666667  0.00000000       0.007
   0.50000000  0.50000000  0.00000000       0.002
   0.08333333  0.08333333  0.08333333       0.005
   0.16666667  0.08333333  0.08333333       0.014
   0.25000000  0.08333333  0.08333333       0.014
   0.33333333  0.08333333  0.08333333       0.014
   0.41666667  0.08333333  0.08333333       0.014
   0.50000000  0.08333333  0.08333333       0.007
   0.16666667  0.16666667  0.08333333       0.014
   0.25000000  0.16666667  0.08333333       0.028
   0.33333333  0.16666667  0.08333333       0.028
   0.41666667  0.16666667  0.08333333       0.028
   0.50000000  0.16666667  0.08333333       0.014
   0.25000000  0.25000000  0.08333333       0.014
   0.33333333  0.25000000  0.08333333       0.028
   0.41666667  0.25000000  0.08333333       0.028
   0.50000000  0.25000000  0.08333333       0.014
   0.33333333  0.33333333  0.08333333       0.014
   0.41666667  0.33333333  0.08333333       0.028
   0.50000000  0.33333333  0.08333333       0.014
   0.41666667  0.41666667  0.08333333       0.014
   0.50000000  0.41666667  0.08333333       0.014
   0.50000000  0.50000000  0.08333333       0.003
   0.16666667  0.16666667  0.16666667       0.005
   0.25000000  0.16666667  0.16666667       0.014
   0.33333333  0.16666667  0.16666667       0.014
   0.41666667  0.16666667  0.16666667       0.014
   0.50000000  0.16666667  0.16666667       0.007
   0.25000000  0.25000000  0.16666667       0.014
   0.33333333  0.25000000  0.16666667       0.028
   0.41666667  0.25000000  0.16666667       0.028
   0.50000000  0.25000000  0.16666667       0.014
   0.33333333  0.33333333  0.16666667       0.014
   0.41666667  0.33333333  0.16666667       0.028
[...]
   0.41666667  0.33333333  0.25000000       0.028
   0.50000000  0.33333333  0.25000000       0.014
   0.41666667  0.41666667  0.25000000       0.014
   0.50000000  0.41666667  0.25000000       0.014
   0.50000000  0.50000000  0.25000000       0.003
   0.33333333  0.33333333  0.33333333       0.005
   0.41666667  0.33333333  0.33333333       0.014
   0.50000000  0.33333333  0.33333333       0.007
   0.41666667  0.41666667  0.33333333       0.014
   0.50000000  0.41666667  0.33333333       0.014
   0.50000000  0.50000000  0.33333333       0.003
   0.41666667  0.41666667  0.41666667       0.005
   0.50000000  0.41666667  0.41666667       0.007
   0.50000000  0.50000000  0.41666667       0.003
   0.50000000  0.50000000  0.50000000       0.001

 position of ions in fractional coordinates (direct lattice)
   0.00000000  0.00000000  0.00000000
   0.50000000  0.50000000  0.00000000
   0.50000000  0.00000000  0.50000000
   0.00000000  0.50000000  0.50000000

 position of ions in cartesian coordinates  (Angst):
   0.00000000  0.00000000  0.00000000
   2.28977363  2.28977363  0.00000000
   2.28977363  0.00000000  2.28977363
   0.00000000  2.28977363  2.28977363

 k-point  1 :  0.00000.00000.0000  plane waves:   4457
 k-point  2 :  0.08330.00000.0000  plane waves:   4481
 k-point  3 :  0.16670.00000.0000  plane waves:   4485
 k-point  4 :  0.25000.00000.0000  plane waves:   4504
 k-point  5 :  0.33330.00000.0000  plane waves:   4500
 k-point  6 :  0.41670.00000.0000  plane waves:   4480
 k-point  7 :  0.50000.00000.0000  plane waves:   4484
 k-point  8 :  0.08330.08330.0000  plane waves:   4483
 k-point  9 :  0.16670.08330.0000  plane waves:   4494
 k-point 10 :  0.25000.08330.0000  plane waves:   4496
 k-point 11 :  0.33330.08330.0000  plane waves:   4483
 k-point 12 :  0.41670.08330.0000  plane waves:   4476
 k-point 13 :  0.50000.08330.0000  plane waves:   4462
 k-point 14 :  0.16670.16670.0000  plane waves:   4481
 k-point 15 :  0.25000.16670.0000  plane waves:   4476
 k-point 16 :  0.33330.16670.0000  plane waves:   4490
 k-point 17 :  0.41670.16670.0000  plane waves:   4477
 k-point 18 :  0.50000.16670.0000  plane waves:   4460
 k-point 19 :  0.25000.25000.0000  plane waves:   4466
 k-point 20 :  0.33330.25000.0000  plane waves:   4489
 k-point 21 :  0.41670.25000.0000  plane waves:   4476
 k-point 22 :  0.50000.25000.0000  plane waves:   4470
 k-point 23 :  0.33330.33330.0000  plane waves:   4500
 k-point 24 :  0.41670.33330.0000  plane waves:   4477
 k-point 25 :  0.50000.33330.0000  plane waves:   4460
 k-point 26 :  0.41670.41670.0000  plane waves:   4486
 k-point 27 :  0.50000.41670.0000  plane waves:   4476
 k-point 28 :  0.50000.50000.0000  plane waves:   4500
 k-point 29 :  0.08330.08330.0833  plane waves:   4493
 k-point 30 :  0.16670.08330.0833  plane waves:   4495
 k-point 31 :  0.25000.08330.0833  plane waves:   4476
 k-point 32 :  0.33330.08330.0833  plane waves:   4475
 k-point 33 :  0.41670.08330.0833  plane waves:   4475
 k-point 34 :  0.50000.08330.0833  plane waves:   4468
 k-point 35 :  0.16670.16670.0833  plane waves:   4484
 k-point 36 :  0.25000.16670.0833  plane waves:   4487
 k-point 37 :  0.33330.16670.0833  plane waves:   4474
 k-point 38 :  0.41670.16670.0833  plane waves:   4472
 k-point 39 :  0.50000.16670.0833  plane waves:   4472
 k-point 40 :  0.25000.25000.0833  plane waves:   4483
 k-point 41 :  0.33330.25000.0833  plane waves:   4479
 k-point 42 :  0.41670.25000.0833  plane waves:   4466
 k-point 43 :  0.50000.25000.0833  plane waves:   4466
 k-point 44 :  0.33330.33330.0833  plane waves:   4487
 k-point 45 :  0.41670.33330.0833  plane waves:   4479
 k-point 46 :  0.50000.33330.0833  plane waves:   4478
 k-point 47 :  0.41670.41670.0833  plane waves:   4487
 k-point 48 :  0.50000.41670.0833  plane waves:   4480
 k-point 49 :  0.50000.50000.0833  plane waves:   4480
 k-point 50 :  0.16670.16670.1667  plane waves:   4464
 k-point 51 :  0.25000.16670.1667  plane waves:   4481
 k-point 52 :  0.33330.16670.1667  plane waves:   4474
 k-point 53 :  0.41670.16670.1667  plane waves:   4462
 k-point 54 :  0.50000.16670.1667  plane waves:   4470
 k-point 55 :  0.25000.25000.1667  plane waves:   4467
 k-point 56 :  0.33330.25000.1667  plane waves:   4469
 k-point 57 :  0.41670.25000.1667  plane waves:   4469
 k-point 58 :  0.50000.25000.1667  plane waves:   4478
 k-point 59 :  0.33330.33330.1667  plane waves:   4472
 k-point 60 :  0.41670.33330.1667  plane waves:   4484
[...]
 k-point 70 :  0.41670.33330.2500  plane waves:   4485
 k-point 71 :  0.50000.33330.2500  plane waves:   4478
 k-point 72 :  0.41670.41670.2500  plane waves:   4484
 k-point 73 :  0.50000.41670.2500  plane waves:   4490
 k-point 74 :  0.50000.50000.2500  plane waves:   4524
 k-point 75 :  0.33330.33330.3333  plane waves:   4476
 k-point 76 :  0.41670.33330.3333  plane waves:   4479
 k-point 77 :  0.50000.33330.3333  plane waves:   4492
 k-point 78 :  0.41670.41670.3333  plane waves:   4481
 k-point 79 :  0.50000.41670.3333  plane waves:   4498
 k-point 80 :  0.50000.50000.3333  plane waves:   4492
 k-point 81 :  0.41670.41670.4167  plane waves:   4494
 k-point 82 :  0.50000.41670.4167  plane waves:   4496
 k-point 83 :  0.50000.50000.4167  plane waves:   4524
 k-point 84 :  0.50000.50000.5000  plane waves:   4416

 maximum and minimum number of plane-waves per node :   4524  4416

 maximum number of plane-waves:   4524
 maximal index in each direction:
   IXMAX= 10   IYMAX= 10   IZMAX= 10
   IXMIN=-10   IYMIN=-10   IZMIN=-10

 NGX is ok and might be reduce to  42
 NGY is ok and might be reduce to  42
 NGZ is ok and might be reduce to  42

 parallel 3dFFT wavefunction:
    minimum data exchange during FFTs selected (reduces bandwidth)
 parallel 3dFFT charge:
    minimum data exchange during FFTs selected (reduces bandwidth)

Broyden mixing: mesh for mixing (old mesh)
   NGX = 21   NGY = 21   NGZ = 21
  (NGX  = 84   NGY  = 84   NGZ  = 84)
 gives a total of   9261 points
 initial charge density was supplied:
 charge density of overlapping atoms calculated
 number of electron   44.0000000 magnetization
 keeping initial charge density in first step

 Maximum index for augmentation-charges        73669 (set IRDMAX)

 First call to EWALD:  gamma=   0.387
 Maximum number of real-space cells 3x 3x 3
 Maximum number of reciprocal cells 3x 3x 3

----------------------------------------- Iteration    1(   1)  ---------------------------------------

 eigenvalue-minimisations  :  4704
 total energy-change (2. order) : 0.4409812E+03  (-0.2636430E+04)
 number of electron   44.0000000 magnetization
 augmentation part    44.0000000 magnetization

 Free energy of the ion-electron system (eV)
  alpha Z        PSCENC =       295.82903261
  Ewald energy   TEWEN  =     -3488.79277206
  -1/2 Hartree   DENC   =     -1027.47189516
  -V(xc)+E(xc)   XCENC  =       -45.86472075
  PAW double counting   =      3482.67677651    -3297.07979946
  entropy T*S    EENTRO =        -0.00021669
  eigenvalues    EBANDS =       372.03516590
  atomic energy  EATOM  =      4149.64961272
  free energy    TOTEN  =       440.98118361 eV

  energy without entropy =      440.98140030  energy(sigma->0) =      440.98129196

[...]

 eigenvalue-minimisations  :  4740
 total energy-change (2. order) :-0.4352197E+03  (-0.4118121E+03)
 number of electron   44.0000000 magnetization
 augmentation part    44.0000000 magnetization

[...]

 Broyden mixing:
  rms(total) = 0.39689E+00    rms(broyden)= 0.39689E+00
  rms(prec ) = 0.96825E+00
  weight for this iteration     100.00

[...]

 eigenvalues of (default mixing * dielectric matrix)
  average eigenvalue GAMMA=   0.9636
  0.9636

[...]

 eigenvalue-minimisations  :  4708
 total energy-change (2. order) : 0.4699768E-06  (-0.7124643E-08)
 number of electron   44.0000002 magnetization
 augmentation part    21.3016315 magnetization

 Broyden mixing:
  rms(total) = 0.17328E-04    rms(broyden)= 0.17328E-04
  rms(prec ) = 0.31628E-04
  weight for this iteration     100.00

 eigenvalues of (default mixing * dielectric matrix)
  average eigenvalue GAMMA=   1.8676
  2.9705  2.4669  2.4669  2.1344  1.0045  1.0045  1.0255

[...]

----------------------------------------- Iteration    1(  13)  ---------------------------------------

 eigenvalue-minimisations  :  2560
 total energy-change (2. order) :-0.9739779E-08  (-0.6940347E-10)
 number of electron   44.0000002 magnetization
 augmentation part    21.3016315 magnetization

 Free energy of the ion-electron system (eV)
  alpha Z        PSCENC =       295.82903261
  Ewald energy   TEWEN  =     -3488.79277206
  -1/2 Hartree   DENC   =      -990.37373005
  -V(xc)+E(xc)   XCENC  =       -47.29209811
  PAW double counting   =      3429.48407933    -3247.67202803
  entropy T*S    EENTRO =        -0.00017437
  eigenvalues    EBANDS =      -111.00036898
  atomic energy  EATOM  =      4149.64961272
  free energy    TOTEN  =       -10.16844695 eV

  energy without entropy =      -10.16827258  energy(sigma->0) =      -10.16835976

 average (electrostatic) potential at core
  the test charge radii are     1.1249
  (the norm of the test charge is              1.0000)
       1 -43.0981       2 -43.0981       3 -43.0981       4 -43.0981

 E-fermi :   1.1145     XC(G=0): -10.2894     alpha+bet : -6.0643
   add alpha+bet to get absolut eigen values

 k-point   1 :       0.0000    0.0000    0.0000
  band No.  band energies     occupation
      1      -4.5814      2.00000
      2      -3.7181      2.00000
      3      -3.7181      2.00000
      4      -3.7181      2.00000
      5      -3.6789      2.00000
      6      -3.6789      2.00000
      7      -3.6789      2.00000
      8      -2.8718      2.00000
      9      -2.8718      2.00000
     10      -2.8718      2.00000
     11      -2.3177      2.00000
     12      -2.3177      2.00000
     13      -1.9053      2.00000
     14      -1.9053      2.00000
     15      -1.9053      2.00000
     16      -1.7732      2.00000
     17      -1.7732      2.00000
     18      -1.7732      2.00000
     19      -1.7732      2.00000
     20      -1.7732      2.00000
     21      -1.7732      2.00000
     22       2.9109      0.00000
     23       2.9109      0.00000
     24       2.9109      0.00000
     25       5.5118      0.00000
     26       5.5118      0.00000
     27       5.5118      0.00000
     28      10.0791      0.00000

[...]

 k-point  84 :       0.5000    0.5000    0.5000
  band No.  band energies     occupation
      1      -3.7151      2.00000
      2      -3.7151      2.00000
      3      -3.7151      2.00000
      4      -3.7151      2.00000
      5      -2.8760      2.00000
      6      -2.8760      2.00000
      7      -2.8760      2.00000
      8      -2.8760      2.00000
      9      -2.8760      2.00000
     10      -2.8760      2.00000
     11      -2.8760      2.00000
     12      -2.8760      2.00000
     13      -1.8848      2.00000
     14      -1.8848      2.00000
     15      -1.8848      2.00000
     16      -1.8848      2.00000
     17      -1.8848      2.00000
     18      -1.8848      2.00000
     19      -1.8848      2.00000
     20      -1.8848      2.00000
     21       1.4286      0.00000
     22       1.4286      0.00000
     23       1.4286      0.00000
     24       1.4286      0.00000
     25       3.0894      0.00000
     26       3.0894      0.00000
     27       3.0894      0.00000
     28       3.0894      0.00000

 soft charge-density along one line, spin component           1
         0         1         2         3         4         5         6         7         8         9
 total charge-density along one line

------------------------ aborting loop because EDIFF is reached ----------------------------------------

  FREE ENERGIE OF THE ION-ELECTRON SYSTEM (eV)
  free  energy   TOTEN  =       -10.168447 eV

  energy  without entropy=      -10.168273  energy(sigma->0) =      -10.168360

  FORCE on cell =-STRESS in cart. coord.  units (eV/reduce length):
  Direction    X        Y        Z        XY       YZ       ZX
  Alpha Z    295.83    295.83    295.83
  Ewald    -1162.93  -1162.93  -1162.93      0.00      0.00      0.00
  Hartree    330.12    330.12    330.12     -0.00     -0.00     -0.00
  E(xc)     -230.86   -230.86   -230.86      0.00      0.00      0.00
  Local      328.56    328.56    328.56     -0.00      0.00      0.00
  n-local   -272.10   -278.24   -280.00      0.14      1.82      0.47
  augment    166.14    166.14    166.14     -0.00     -0.00     -0.00
  Kinetic    550.17    542.07    537.74     -1.97      1.14     -0.62
  Total       -6.60     -6.60     -6.60     -0.00     -0.00      0.00
  in kB     -110.04   -110.04   -110.04     -0.00     -0.00      0.00

 VOLUME and BASIS-vectors are now :
  energy-cutoff  :      750.00
  volume of cell :       96.04
      direct lattice vectors                 reciprocal lattice vectors
     4.579547260  0.000000000  0.000000000     0.218362197  0.000000000  0.000000000
     0.000000000  4.579547260  0.000000000     0.000000000  0.218362197  0.000000000
     0.000000000  0.000000000  4.579547260     0.000000000  0.000000000  0.218362197

  length of vectors
     4.579547260  4.579547260  4.579547260     0.218362197  0.218362197  0.218362197

 FORCES acting on ions
    electron-ion (+dipol)            ewald-force                    non-local-force                 convergence-correction
   0.357E-14 -.342E-14 -.292E-13   -.803E-14 0.663E-15 -.940E-14   0.775E-25 0.775E-25 -.246E-24   -.552E-14 0.156E-13 0.247E-13
   0.332E-12 -.168E-11 -.134E-12   0.119E-14 0.498E-14 -.952E-14   0.181E-24 0.258E-25 0.213E-24   -.672E-13 -.565E-13 0.321E-13
   0.333E-12 -.445E-14 -.743E-12   0.577E-14 -.536E-14 0.108E-13   -.220E-24 -.775E-25 0.452E-25   -.702E-13 0.120E-13 -.687E-13
   0.390E-14 0.328E-12 0.303E-12   0.957E-15 -.104E-14 0.107E-13   0.388E-25 0.258E-25 -.258E-25   -.682E-14 -.530E-13 -.602E-13
   0.673E-12 -.136E-11 -.604E-12   -.108E-15 -.756E-15 0.251E-14   0.775E-25 0.517E-25 -.129E-25   -.150E-12 -.819E-13 -.721E-13

 POSITION                                       TOTAL-FORCE (eV/Angst)
      0.00000      0.00000      0.00000         0.000000      0.000000     -0.000000
      2.28977      2.28977      0.00000         0.000000      0.000000     -0.000000
      2.28977      0.00000      2.28977         0.000000     -0.000000     -0.000000
      0.00000      2.28977      2.28977        -0.000000      0.000000     -0.000000
    total drift:                                0.000000     -0.000000     -0.000000

 mean value of Nose-termostat <S>:     1.000 mean value of <T> :     0.000
 mean temperature <T/S>/<1/S>  :     0.000