 vasp.4.6.28 25Jul05 complex
 executed on             LinuxIFC date 2017.01.24  14:06:42

 INCAR:
 POTCAR:   PAW_PBE Ag 06Sep2000
 POTCAR:   PAW_PBE Ag 06Sep2000
   VRHFIN =Ag : s1 d10

   TITEL  = PAW_PBE Ag 06Sep2000
   POMASS =  107.868; ZVAL   =   11.000    mass and valenz
   ENMAX  =  249.846; ENMIN  =  187.385 eV
   QCUT   =   -4.285; QGAM   =    8.570    optimization parameters

   Description
     l     E      TYP  RCUT    TYP  RCUT
     2   .000     23  2.400
     2   .000     23  2.400
     0   .000     23  2.400
     0   .000     23  2.400
     1  -.200     23  2.400
     1  1.500     23  2.400
     3   .000      7   .000

 PAW_PBE Ag 06Sep2000                   :

 POSCAR: No title
  positions in direct lattice

 ion  position               nearest neighbor table
   1  0.750  0.750  0.500-   3 2.99   5 2.99  14 2.99  19 2.99  20 2.99  26 2.99   6 2.99  29 2.99
                            11 2.99  18 2.99  10 2.99   8 2.99
   2  0.750  0.750  0.000-  12 2.97  10 2.99  11 2.99   8 2.99  18 2.99  22 2.99  27 2.99  32 2.99
                             5 2.99  26 2.99   3 2.99  20 2.99
   3  0.750  0.000  0.250-  12 2.97   5 2.99   9 2.99   1 2.99  19 2.99  28 2.99  13 2.99  18 2.99
                            27 2.99   6 2.99   4 2.99   2 2.99
   4  0.750  0.250  0.500-   6 2.99   8 2.99  10 2.99  13 2.99  29 2.99  31 2.99  14 2.99  19 2.99
                            21 2.99  28 2.99   3 2.99  20 2.99
   5  0.000  0.750  0.250-   1 2.99   3 2.99  14 2.99  15 2.99  25 2.99  16 2.99  10 2.99   7 2.99
                             2 2.99  22 2.99   6 2.99  12 2.99
   6  0.000  0.000  0.500-   4 2.99   7 2.99   8 2.99  11 2.99  13 2.99  16 2.99   1 2.99  17 2.99
                             3 2.99  23 2.99  21 2.99   5 2.99
   7  0.250  0.750  0.500-   6 2.99  11 2.99  16 2.99  18 2.99  29 2.99  30 2.99  14 2.99  19 2.99
                             5 2.99  26 2.99  25 2.99  23 2.99
   8  0.750  0.000  0.750-  12 2.97   4 2.99   6 2.99  11 2.99   2 2.99  27 2.99  31 2.99  21 2.99
                            26 2.99  19 2.99   9 2.99   1 2.99
   9  0.750  0.250  0.000-  12 2.97   3 2.99  20 2.99  21 2.99  28 2.99  32 2.99  22 2.99  27 2.99
                            31 2.99  13 2.99  10 2.99   8 2.99
  10  0.750  0.500  0.250-   2 2.99   4 2.99  13 2.99  18 2.99  22 2.99  29 2.99  28 2.99   5 2.99
                            14 2.99  32 2.99   9 2.99   1 2.99
  11  0.000  0.750  0.750-   2 2.99   6 2.99   7 2.99   8 2.99  22 2.99  30 2.99  23 2.99  20 2.99
                             1 2.99  15 2.99  14 2.99  12 2.99
  12  0.998  0.000  0.000-   9 2.97   3 2.97   8 2.97   2 2.97   5 2.99  21 2.99  11 2.99  13 2.99
                            15 3.00  23 3.00  16 3.00  24 3.00
  13  0.000  0.250  0.250-   4 2.99   6 2.99  10 2.99  16 2.99  22 2.99  24 2.99   3 2.99  25 2.99
                            17 2.99   9 2.99  14 2.99  12 2.99
  14  0.000  0.500  0.500-   1 2.99   5 2.99  17 2.99  20 2.99  21 2.99  25 2.99   4 2.99   7 2.99
                            10 2.99  30 2.99  13 2.99  11 2.99
  15  0.250  0.750  0.000-   5 2.99  23 2.99  25 2.99  26 2.99  32 2.99  27 2.99  22 2.99  11 2.99
                            18 2.99  30 2.99  16 2.99  12 3.00
  16  0.250  0.000  0.250-   6 2.99   7 2.99  13 2.99  18 2.99  24 2.99  27 2.99   5 2.99  28 2.99
                            19 2.99  17 2.99  15 2.99  12 3.00
  17  0.250  0.250  0.500-  14 2.99  19 2.99  21 2.99  23 2.99  25 2.99  28 2.99   6 2.99  29 2.99
                            13 2.99  31 2.99  30 2.99  16 2.99
  18  0.500  0.750  0.250-   2 2.99   7 2.99  10 2.99  16 2.99  27 2.99  29 2.99   3 2.99  25 2.99
                             1 2.99  15 2.99  19 2.99  32 2.99
  19  0.500  0.000  0.500-   1 2.99   3 2.99  17 2.99  23 2.99  26 2.99  28 2.99   4 2.99   7 2.99
                             8 2.99  16 2.99  18 2.99  31 2.99
  20  0.750  0.500  0.750-   1 2.99   9 2.99  14 2.99  21 2.99  26 2.99  32 2.99  31 2.99  11 2.99
                            22 2.99  29 2.99   4 2.99   2 2.99
  21  0.000  0.250  0.750-   9 2.99  14 2.99  17 2.99  20 2.99  23 2.99   8 2.99  30 2.99  24 2.99
                             4 2.99  22 2.99   6 2.99  12 2.99
  22  0.000  0.500  0.000-   2 2.99  10 2.99  11 2.99  13 2.99  24 2.99  30 2.99   9 2.99  15 2.99
                            25 2.99  20 2.99  21 2.99   5 2.99
  23  0.250  0.000  0.750-  15 2.99  17 2.99  19 2.99  21 2.99  26 2.99  11 2.99  31 2.99  27 2.99
                             6 2.99  24 2.99   7 2.99  12 3.00
  24  0.250  0.250  0.000-  13 2.99  16 2.99  22 2.99  27 2.99  30 2.99  31 2.99  32 2.99  28 2.99
                            21 2.99  25 2.99  23 2.99  12 3.00
  25  0.250  0.500  0.250-   5 2.99  14 2.99  15 2.99  17 2.99  28 2.99  32 2.99  13 2.99  18 2.99
                            29 2.99  22 2.99  24 2.99   7 2.99
  26  0.500  0.750  0.750-   1 2.99  15 2.99  19 2.99  20 2.99  23 2.99  32 2.99  30 2.99   8 2.99
                             7 2.99   2 2.99  27 2.99  29 2.99
  27  0.500  0.000  0.000-   2 2.99   8 2.99  16 2.99  18 2.99  24 2.99  31 2.99   9 2.99  15 2.99
                             3 2.99  23 2.99  28 2.99  26 2.99
  28  0.500  0.250  0.250-   3 2.99   9 2.99  17 2.99  19 2.99  25 2.99  32 2.99  10 2.99  16 2.99
                             4 2.99  24 2.99  29 2.99  27 2.99
  29  0.500  0.500  0.500-   4 2.99   7 2.99  10 2.99  18 2.99  30 2.99  31 2.99  17 2.99   1 2.99
                            20 2.99  25 2.99  26 2.99  28 2.99
  30  0.250  0.500  0.750-   7 2.99  11 2.99  22 2.99  24 2.99  29 2.99  31 2.99  21 2.99  26 2.99
                            14 2.99  32 2.99  17 2.99  15 2.99
  31  0.500  0.250  0.750-   4 2.99   8 2.99  24 2.99  27 2.99  29 2.99  30 2.99  20 2.99  23 2.99
                             9 2.99  17 2.99  19 2.99  32 2.99
  32  0.500  0.500  0.000-   9 2.99  15 2.99  20 2.99  25 2.99  26 2.99  28 2.99  24 2.99   2 2.99
                            10 2.99  30 2.99  18 2.99  31 2.99

  LATTYP: Found a simple cubic cell.
 ALAT       =     8.4507526300

  Lattice vectors:

 A1 = (   8.4507526300,   0.0000000000,   0.0000000000)
 A2 = (   0.0000001500,   8.4507526300,   0.0000000000)
 A3 = (   0.0000001500,   0.0000001500,   8.4507526300)
 Subroutine PRICEL returns:
 Original cell was already a primitive cell.

Analysis of symmetry for initial positions (statically):

 Routine SETGRP: Setting up the symmetry group for a
 simple cubic supercell.

 Subroutine GETGRP returns: Found  8 space group operations
 (whereof  8 operations were pure point group operations)
 out of a pool of 48 trial point group operations.

The static configuration has the point symmetry C_4v.

Analysis of symmetry for dynamics (positions and initial velocities):

 Subroutine DYNSYM returns: Found  8 space group operations
 (whereof  8 operations were pure point group operations)
 out of a pool of  8 trial space group operations
 (whereof  8 operations were pure point group operations)
 and found also     1 'primitive' translations

The dynamic configuration has the point symmetry C_4v.

 KPOINTS: Automatic mesh

Automatic generation of k-mesh.

 Subroutine IBZKPT returns following result:

 Found     40 irreducible k-points:

 Following reciprocal coordinates:
            Coordinates               Weight
  0.062500  0.062500  0.062500      8.000000
  0.187500  0.062500  0.062500      8.000000
  0.312500  0.062500  0.062500      8.000000
  0.437500  0.062500  0.062500      8.000000
  0.062500  0.187500  0.062500     16.000000
  0.187500  0.187500  0.062500     16.000000
  0.312500  0.187500  0.062500     16.000000
  0.437500  0.187500  0.062500     16.000000
  0.062500  0.312500  0.062500     16.000000
  0.187500  0.312500  0.062500     16.000000
  0.312500  0.312500  0.062500     16.000000
  0.437500  0.312500  0.062500     16.000000
  0.062500  0.437500  0.062500     16.000000
  0.187500  0.437500  0.062500     16.000000
  0.312500  0.437500  0.062500     16.000000
  0.437500  0.437500  0.062500     16.000000
  0.062500  0.187500  0.187500      8.000000
  0.187500  0.187500  0.187500      8.000000
  0.312500  0.187500  0.187500      8.000000
  0.437500  0.187500  0.187500      8.000000
  0.062500  0.312500  0.187500     16.000000
  0.187500  0.312500  0.187500     16.000000
  0.312500  0.312500  0.187500     16.000000
  0.437500  0.312500  0.187500     16.000000
  0.062500  0.437500  0.187500     16.000000
  0.187500  0.437500  0.187500     16.000000
  0.312500  0.437500  0.187500     16.000000
  0.437500  0.437500  0.187500     16.000000
  0.062500  0.312500  0.312500      8.000000
  0.187500  0.312500  0.312500      8.000000
  0.312500  0.312500  0.312500      8.000000
  0.437500  0.312500  0.312500      8.000000
  0.062500  0.437500  0.312500     16.000000
  0.187500  0.437500  0.312500     16.000000
  0.312500  0.437500  0.312500     16.000000
  0.437500  0.437500  0.312500     16.000000
  0.062500  0.437500  0.437500      8.000000
  0.187500  0.437500  0.437500      8.000000
  0.312500  0.437500  0.437500      8.000000
  0.437500  0.437500  0.437500      8.000000

 Following cartesian coordinates:
            Coordinates               Weight
  0.007396  0.007396  0.007396      8.000000
  0.022187  0.007396  0.007396      8.000000
  0.036979  0.007396  0.007396      8.000000
  0.051771  0.007396  0.007396      8.000000
  0.007396  0.022187  0.007396     16.000000
  0.022187  0.022187  0.007396     16.000000
  0.036979  0.022187  0.007396     16.000000
  0.051771  0.022187  0.007396     16.000000
  0.007396  0.036979  0.007396     16.000000
  0.022187  0.036979  0.007396     16.000000
  0.036979  0.036979  0.007396     16.000000
  0.051771  0.036979  0.007396     16.000000
  0.007396  0.051771  0.007396     16.000000
  0.022187  0.051771  0.007396     16.000000
  0.036979  0.051771  0.007396     16.000000
  0.051771  0.051771  0.007396     16.000000
  0.007396  0.022187  0.022187      8.000000
  0.022187  0.022187  0.022187      8.000000
  0.036979  0.022187  0.022187      8.000000
  0.051771  0.022187  0.022187      8.000000
  0.007396  0.036979  0.022187     16.000000
  0.022187  0.036979  0.022187     16.000000
  0.036979  0.036979  0.022187     16.000000
  0.051771  0.036979  0.022187     16.000000
  0.007396  0.051771  0.022187     16.000000
  0.022187  0.051771  0.022187     16.000000
  0.036979  0.051771  0.022187     16.000000
  0.051771  0.051771  0.022187     16.000000
  0.007396  0.036979  0.036979      8.000000
  0.022187  0.036979  0.036979      8.000000
  0.036979  0.036979  0.036979      8.000000
  0.051771  0.036979  0.036979      8.000000
  0.007396  0.051771  0.036979     16.000000
  0.022187  0.051771  0.036979     16.000000
  0.036979  0.051771  0.036979     16.000000
  0.051771  0.051771  0.036979     16.000000
  0.007396  0.051771  0.051771      8.000000
  0.022187  0.051771  0.051771      8.000000
  0.036979  0.051771  0.051771      8.000000
  0.051771  0.051771  0.051771      8.000000

 I would recommend the setting:
   dimension x,y,z NGX =    68 NGY =   68 NGZ =   68
 SYSTEM =  No title
 POSCAR =  No title

 Startparameter for this run:
   NWRITE =      2    write-flag & timer
[...]

[...]

 eigenvalues of (default mixing * dielectric matrix)
  average eigenvalue GAMMA=   0.8832
  0.8832

[...]

 eigenvalue-minimisations  : 18215
 total energy-change (2. order) :-0.2995894E-03  (-0.3086820E-02)
 number of electron  352.0000013 magnetization
 augmentation part   169.2232010 magnetization

[...]

 Broyden mixing:
  rms(total) = 0.30910E-03    rms(broyden)= 0.30908E-03
  rms(prec ) = 0.47462E-03
  weight for this iteration     100.00

 eigenvalues of (default mixing * dielectric matrix)
  average eigenvalue GAMMA=   1.4886
  2.6146  1.9651  1.5258  0.9713  0.9713  0.8838

[...]

----------------------------------------- Iteration    1(   8)  ---------------------------------------

 eigenvalue-minimisations  : 10127
 total energy-change (2. order) : 0.3707959E-05  (-0.4430130E-06)
 number of electron  352.0000013 magnetization
 augmentation part   169.1561735 magnetization

 Free energy of the ion-electron system (eV)
  alpha Z        PSCENC =      3013.02153097
  Ewald energy   TEWEN  =    -30249.71466174
  -1/2 Hartree   DENC   =     -6618.93360140
  -V(xc)+E(xc)   XCENC  =      -364.29336491
  PAW double counting   =     27659.68995853   -26235.36765045
  entropy T*S    EENTRO =        -0.01186876
  eigenvalues    EBANDS =      -491.73494424
  atomic energy  EATOM  =     33197.16788402
  free energy    TOTEN  =       -90.17671797 eV

  energy without entropy =      -90.16484922  energy(sigma->0) =      -90.17276172

 average (electrostatic) potential at core
  the test charge radii are     1.1249
  (the norm of the test charge is              1.0000)
       1 -41.8926       2 -41.8946       3 -41.8946       4 -41.8926       5 -41.8924
       6 -41.8925       7 -41.8923       8 -41.8946       9 -41.8946      10 -41.8926
      11 -41.8924      12 -41.8926      13 -41.8924      14 -41.8925      15 -41.8904
      16 -41.8904      17 -41.8923      18 -41.8925      19 -41.8925      20 -41.8926
      21 -41.8924      22 -41.8925      23 -41.8904      24 -41.8904      25 -41.8923
      26 -41.8925      27 -41.8925      28 -41.8925      29 -41.8925      30 -41.8923
      31 -41.8925      32 -41.8925

 E-fermi :   2.7137     XC(G=0): -11.6184     alpha+bet : -7.7206
   add alpha+bet to get absolut eigen values

 k-point   1 :       0.0625    0.0625    0.0625
  band No.  band energies     occupation
      1      -4.3599      2.00000
      2      -3.1705      2.00000
      3      -3.1704      2.00000
      4      -3.1704      2.00000
      5      -3.1522      2.00000
      6      -3.1421      2.00000
      7      -3.1420      2.00000
      8      -3.1420      2.00000
      9      -3.0688      2.00000
     10      -3.0687      2.00000
     11      -3.0686      2.00000
     12      -2.8155      2.00000
     13      -2.8136      2.00000
     14      -2.8118      2.00000
     15      -2.7242      2.00000
     16      -2.7227      2.00000
     17      -2.7212      2.00000
     18      -2.5440      2.00000
     19      -2.5412      2.00000
     20      -2.5411      2.00000
     21      -2.5410      2.00000
     22      -2.5409      2.00000
     23      -2.5396      2.00000
     24      -2.5383      2.00000
     25      -2.5382      2.00000
     26      -2.5372      2.00000
     27      -2.4180      2.00000
     28      -2.4168      2.00000
     29      -2.4156      2.00000
     30      -2.3280      2.00000
     31      -2.3266      2.00000
     32      -2.3251      2.00000
     33      -2.3089      2.00000
     34      -2.3078      2.00000
     35      -2.3066      2.00000
     36      -2.2913      2.00000
     37      -2.2904      2.00000
     38      -2.2893      2.00000
     39      -2.2892      2.00000
     40      -2.2882      2.00000
     41      -2.2874      2.00000
     42      -2.1550      2.00000
     43      -2.1549      2.00000
     44      -2.1537      2.00000
     45      -2.1536      2.00000
     46      -2.1523      2.00000
     47      -2.1523      2.00000
     48      -2.0788      2.00000
     49      -2.0769      2.00000
     50      -2.0765      2.00000
     51      -2.0750      2.00000
     52      -2.0746      2.00000
     53      -2.0737      2.00000
     54      -2.0729      2.00000
     55      -2.0725      2.00000
     56      -2.0714      2.00000
     57      -2.0314      2.00000
     58      -2.0302      2.00000
     59      -2.0288      2.00000
     60      -1.9051      2.00000
[...]
    198       8.3939      0.00000
    199       8.3962      0.00000
    200       8.3962      0.00000
    201       8.3986      0.00000
    202       8.3988      0.00000
    203       8.7687      0.00000
    204       8.7689      0.00000
    205       8.7691      0.00000
    206       9.3430      0.00000
    207       9.3437      0.00000
    208       9.3439      0.00000
    209       9.3442      0.00000
    210       9.3449      0.00000
    211      10.2948      0.00000
    212      10.5805      0.00000

[...]

 k-point  40 :       0.4375    0.4375    0.4375
  band No.  band energies     occupation
      1      -3.2852      2.00000
      2      -3.1556      2.00000
      3      -3.1537      2.00000
      4      -3.1519      2.00000
      5      -3.0806      2.00000
      6      -3.0790      2.00000
      7      -3.0775      2.00000
      8      -3.0582      2.00000
      9      -2.8044      2.00000
     10      -2.8041      2.00000
     11      -2.8040      2.00000
     12      -2.7693      2.00000
     13      -2.7679      2.00000
     14      -2.7665      2.00000
     15      -2.7519      2.00000
     16      -2.7511      2.00000
     17      -2.7501      2.00000
     18      -2.7498      2.00000
     19      -2.7488      2.00000
     20      -2.7483      2.00000
     21      -2.7382      2.00000
     22      -2.7379      2.00000
     23      -2.7378      2.00000
     24      -2.7355      2.00000
     25      -2.7353      2.00000
     26      -2.7341      2.00000
     27      -2.7341      2.00000
     28      -2.7327      2.00000
     29      -2.7321      2.00000
     30      -2.7276      2.00000
     31      -2.7263      2.00000
     32      -2.7248      2.00000
     33      -2.4307      2.00000
     34      -2.4302      2.00000
     35      -2.4298      2.00000
     36      -2.3268      2.00000
     37      -2.3259      2.00000
     38      -2.3253      2.00000
     39      -2.3110      2.00000
     40      -2.3099      2.00000
     41      -2.3089      2.00000
     42      -2.3089      2.00000
     43      -2.3079      2.00000
     44      -2.3068      2.00000
     45      -2.2159      2.00000
     46      -2.2145      2.00000
     47      -2.2136      2.00000
     48      -2.2135      2.00000
     49      -2.2126      2.00000
     50      -2.2120      2.00000
     51      -2.2090      2.00000
     52      -2.2084      2.00000
     53      -2.2070      2.00000
     54      -2.1326      2.00000
     55      -2.1326      2.00000
     56      -2.1325      2.00000
     57      -1.7619      2.00000
     58      -1.7114      2.00000
     59      -1.7099      2.00000
     60      -1.7083      2.00000
[...]
    198       7.7659     -0.00000
    199       8.1894      0.00000
    200       8.1900      0.00000
    201       8.1923      0.00000
    202       8.1925      0.00000
    203       8.1946      0.00000
    204       8.1952      0.00000
    205       8.5531      0.00000
    206       8.5537      0.00000
    207       8.5559      0.00000
    208       8.5576      0.00000
    209       8.5583      0.00000
    210       8.9691      0.00000
    211       8.9834      0.00000
    212       9.2024      0.00000

 soft charge-density along one line, spin component           1
         0         1         2         3         4         5         6         7         8         9
 total charge-density along one line

------------------------ aborting loop because EDIFF is reached ----------------------------------------

  FREE ENERGIE OF THE ION-ELECTRON SYSTEM (eV)
  free  energy   TOTEN  =       -90.176718 eV

  energy  without entropy=      -90.164849  energy(sigma->0) =      -90.172762

  FORCE on cell =-STRESS in cart. coord.  units (eV/reduce length):
  Direction    X        Y        Z        XY       YZ       ZX
  Alpha Z   3013.02   3013.02   3013.02
  Ewald   -10083.37 -10083.23 -10083.23     -0.00     -0.00     -0.00
  Hartree   2206.31   2206.41   2206.41     -0.00     -0.00     -0.00
  E(xc)    -1856.83  -1856.83  -1856.83     -0.00     -0.00     -0.00
  Local     3147.57   3147.33   3147.33      0.00      0.00      0.00
  n-local  -2129.13  -2132.63  -2125.63      2.23      1.20      0.18
  augment   1339.72   1339.72   1339.72     -0.00     -0.00     -0.00
  Kinetic   4349.58   4343.72   4355.43      1.52     -0.36     -2.24
  Total      -13.13    -13.14    -13.14     -0.00     -0.00     -0.00
  in kB      -34.86    -34.88    -34.88     -0.00     -0.00     -0.00

 VOLUME and BASIS-vectors are now :
  energy-cutoff  :      600.00
  volume of cell :      603.51
      direct lattice vectors                 reciprocal lattice vectors
     8.450752630  0.000000000  0.000000000     0.118332656 -0.000000002 -0.000000002
     0.000000150  8.450752630  0.000000000     0.000000000  0.118332656 -0.000000002
     0.000000150  0.000000150  8.450752630     0.000000000  0.000000000  0.118332656

  length of vectors
     8.450752630  8.450752630  8.450752630     0.118332656  0.118332656  0.118332656

 FORCES acting on ions
    electron-ion (+dipol)            ewald-force                    non-local-force                 convergence-correction
   0.247E-01 0.151E+00 -.138E-07   -.276E-01 -.150E+00 0.148E-07   0.217E-02 -.444E-03 0.169E-20   0.257E-03 -.312E-03 0.147E-09
   0.950E+00 0.183E+01 -.832E-08   -.948E+00 -.183E+01 0.281E-09   -.929E-02 -.687E-02 -.136E-19   -.149E-02 -.186E-02 -.152E-09
   0.950E+00 -.304E-07 -.183E+01   -.948E+00 0.323E-07 0.183E+01   -.929E-02 0.122E-09 0.687E-02   -.149E-02 0.151E-09 0.186E-02
   0.247E-01 -.151E+00 0.804E-08   -.276E-01 0.150E+00 -.864E-08   0.217E-02 0.444E-03 0.000E+00   0.257E-03 0.312E-03 -.106E-09
   -.118E+01 -.885E-02 0.885E-02   0.118E+01 0.880E-02 -.880E-02   -.218E-02 0.515E-04 -.515E-04   0.306E-03 0.299E-04 -.299E-04
   -.624E+00 0.220E-08 0.399E-07   0.627E+00 -.163E-08 -.441E-07   -.223E-02 0.374E-19 -.106E-20   0.144E-04 0.286E-09 -.549E-09
   0.304E-01 -.151E+00 0.770E-08   -.333E-01 0.150E+00 -.829E-08   0.214E-02 0.462E-03 0.000E+00   0.276E-03 0.273E-03 -.105E-09
   0.950E+00 0.243E-07 0.183E+01   -.948E+00 -.323E-07 -.183E+01   -.929E-02 -.122E-09 -.687E-02   -.149E-02 -.185E-09 -.186E-02
   0.950E+00 -.183E+01 0.209E-08   -.948E+00 0.183E+01 -.282E-09   -.929E-02 0.687E-02 0.136E-19   -.149E-02 0.186E-02 0.118E-09
   0.247E-01 0.538E-08 -.151E+00   -.276E-01 -.597E-08 0.150E+00   0.217E-02 0.787E-11 0.444E-03   0.257E-03 -.101E-09 0.312E-03
   -.118E+01 -.885E-02 -.885E-02   0.118E+01 0.880E-02 0.880E-02   -.218E-02 0.515E-04 0.515E-04   0.306E-03 0.299E-04 0.299E-04
   -.749E+01 0.116E-06 -.988E-07   0.750E+01 -.127E-06 -.127E-06   0.550E-01 0.868E-19 0.000E+00   0.732E-02 0.578E-09 0.578E-09
   -.118E+01 0.885E-02 0.885E-02   0.118E+01 -.880E-02 -.880E-02   -.218E-02 -.515E-04 -.515E-04   0.306E-03 -.299E-04 -.299E-04
   -.261E+00 0.113E-07 0.115E-07   0.259E+00 -.117E-07 -.117E-07   0.258E-02 0.238E-19 0.000E+00   -.536E-03 -.257E-09 -.257E-09
   0.962E+00 -.180E+01 0.196E-08   -.960E+00 0.181E+01 -.253E-09   -.933E-02 0.681E-02 0.136E-19   -.151E-02 0.191E-02 0.118E-09
   0.962E+00 0.239E-07 0.180E+01   -.960E+00 -.317E-07 -.181E+01   -.933E-02 -.121E-09 -.681E-02   -.151E-02 -.149E-09 -.191E-02
   0.304E-01 0.151E+00 -.141E-07   -.333E-01 -.150E+00 0.150E-07   0.214E-02 -.462E-03 0.169E-20   0.276E-03 -.273E-03 0.119E-09
   0.661E+00 0.259E-02 -.259E-02   -.665E+00 -.264E-02 0.264E-02   0.248E-02 0.500E-04 -.500E-04   0.316E-03 -.955E-05 0.955E-05
   0.500E+00 -.215E-08 -.278E-07   -.492E+00 0.162E-08 0.279E-07   -.650E-02 -.260E-21 0.000E+00   -.461E-03 -.272E-09 0.461E-09
   0.247E-01 -.111E-07 0.151E+00   -.276E-01 0.121E-07 -.150E+00   0.217E-02 -.787E-11 -.444E-03   0.257E-03 0.141E-09 -.312E-03
   -.118E+01 0.885E-02 -.885E-02   0.118E+01 -.880E-02 0.880E-02   -.218E-02 -.515E-04 0.515E-04   0.306E-03 -.299E-04 0.299E-04
   -.624E+00 0.410E-07 0.216E-08   0.627E+00 -.441E-07 -.163E-08   -.223E-02 -.743E-20 0.678E-20   0.153E-04 -.549E-09 0.286E-09
   0.962E+00 -.300E-07 -.180E+01   -.960E+00 0.318E-07 0.181E+01   -.933E-02 0.121E-09 0.681E-02   -.151E-02 0.152E-09 0.191E-02
   0.962E+00 0.180E+01 -.823E-08   -.960E+00 -.181E+01 0.309E-09   -.933E-02 -.681E-02 -.136E-19   -.151E-02 -.191E-02 -.115E-09
   0.304E-01 -.114E-07 0.151E+00   -.333E-01 0.124E-07 -.150E+00   0.214E-02 -.820E-11 -.462E-03   0.276E-03 0.114E-09 -.273E-03
   0.661E+00 0.259E-02 0.259E-02   -.665E+00 -.264E-02 -.264E-02   0.248E-02 0.500E-04 0.500E-04   0.316E-03 -.955E-05 -.955E-05
   0.196E+01 -.453E-08 0.218E-06   -.198E+01 0.217E-08 0.217E-08   0.144E-01 -.440E-20 0.000E+00   0.240E-04 -.524E-09 -.523E-09
   0.661E+00 -.259E-02 -.259E-02   -.665E+00 0.264E-02 0.264E-02   0.248E-02 -.500E-04 -.500E-04   0.316E-03 0.955E-05 0.955E-05
   0.242E+00 -.100E-07 -.987E-08   -.242E+00 0.103E-07 0.103E-07   0.334E-03 0.234E-20 -.212E-21   0.258E-03 0.263E-09 0.263E-09
   0.304E-01 0.506E-08 -.151E+00   -.333E-01 -.563E-08 0.150E+00   0.214E-02 0.820E-11 0.462E-03   0.276E-03 -.998E-10 0.273E-03
   0.661E+00 -.259E-02 0.259E-02   -.665E+00 0.264E-02 -.264E-02   0.248E-02 -.500E-04 0.500E-04   0.316E-03 0.955E-05 -.955E-05
   0.500E+00 -.267E-07 -.219E-08   -.492E+00 0.279E-07 0.162E-08   -.650E-02 0.152E-19 0.000E+00   -.461E-03 0.461E-09 -.272E-09
   0.218E-02 -.424E-10 0.209E-08   -.350E-12 -.256E-14 -.877E-13   -.116E-02 0.896E-18 -.115E-17   -.123E-02 0.304E-10 0.301E-10

 POSITION                                       TOTAL-FORCE (eV/Angst)
      6.33806      6.33806      4.22538        -0.000456     -0.000119      0.000000
      6.33806      6.33806      0.00000        -0.008968     -0.010574      0.000000
      6.33806      0.00000      2.11269        -0.008968      0.000000      0.010574
      6.33806      2.11269      4.22538        -0.000456      0.000119      0.000000
      0.00000      6.33806      2.11269         0.001686      0.000029     -0.000029
      0.00000      0.00000      4.22538         0.000675      0.000000      0.000000
      2.11269      6.33806      4.22538        -0.000456      0.000116      0.000000
      6.33806      0.00000      6.33806        -0.008968     -0.000000     -0.010574
      6.33806      2.11269      0.00000        -0.008968      0.010574     -0.000000
      6.33806      4.22538      2.11269        -0.000456      0.000000      0.000119
      0.00000      6.33806      6.33806         0.001686      0.000029      0.000029
      8.43075      0.00000      0.00000         0.069620     -0.000000      0.000000
      0.00000      2.11269      2.11269         0.001686     -0.000029     -0.000029
      0.00000      4.22538      4.22538         0.000180      0.000000      0.000000
      2.11269      6.33806      0.00000        -0.008357      0.009751     -0.000000
      2.11269      0.00000      2.11269        -0.008357     -0.000000     -0.009751
      2.11269      2.11269      4.22538        -0.000456     -0.000116      0.000000
      4.22538      6.33806      2.11269        -0.001188     -0.000005      0.000005
      4.22538      0.00000      4.22538         0.000893     -0.000000      0.000000
      6.33806      4.22538      6.33806        -0.000456     -0.000000     -0.000119
      0.00000      2.11269      6.33806         0.001686     -0.000029      0.000029
      0.00000      4.22538      0.00000         0.000675     -0.000000     -0.000000
      2.11269      0.00000      6.33806        -0.008357      0.000000      0.009751
      2.11269      2.11269      0.00000        -0.008357     -0.009751      0.000000
      2.11269      4.22538      2.11269        -0.000456     -0.000000     -0.000116
      4.22538      6.33806      6.33806        -0.001188     -0.000005     -0.000005
      4.22538      0.00000      0.00000        -0.002225     -0.000000      0.000000
      4.22538      2.11269      2.11269        -0.001188      0.000005      0.000005
      4.22538      4.22538      4.22538         0.000246     -0.000000     -0.000000
      2.11269      4.22538      6.33806        -0.000456      0.000000      0.000116
      4.22538      2.11269      6.33806        -0.001188      0.000005     -0.000005
      4.22538      4.22538      0.00000         0.000893      0.000000      0.000000
    total drift:                               -0.000213     -0.000000      0.000000

 mean value of Nose-termostat <S>:     1.000 mean value of <T> :     0.000
 mean temperature <T/S>/<1/S>  :     0.000