 vasp.4.6.28 25Jul05 complex
 executed on             LinuxIFC date 2017.01.24  12:42:32

 INCAR:
 POTCAR:   PAW_PBE Ag 06Sep2000
 POTCAR:   PAW_PBE Ag 06Sep2000
   VRHFIN =Ag : s1 d10

   TITEL  = PAW_PBE Ag 06Sep2000
   POMASS =  107.868; ZVAL   =   11.000    mass and valenz
   ENMAX  =  249.846; ENMIN  =  187.385 eV
   QCUT   =   -4.285; QGAM   =    8.570    optimization parameters

   Description
     l     E      TYP  RCUT    TYP  RCUT
     2   .000     23  2.400
     2   .000     23  2.400
     0   .000     23  2.400
     0   .000     23  2.400
     1  -.200     23  2.400
     1  1.500     23  2.400
     3   .000      7   .000

 PAW_PBE Ag 06Sep2000                   :

 POSCAR: No title
  positions in direct lattice

 ion  position               nearest neighbor table
   1  0.750  0.750  0.500-   3 2.99  14 2.99  19 2.99  20 2.99   5 2.99  26 2.99   6 2.99  29 2.99
                            11 2.99  18 2.99  10 2.99   8 2.99
   2  0.750  0.750  0.000-   8 2.99  10 2.99  22 2.99  27 2.99  11 2.99  18 2.99  12 2.99  32 2.99
                             5 2.99  26 2.99   3 2.99  20 2.99
   3  0.750  0.000  0.250-   1 2.99   5 2.99   9 2.99  28 2.99  19 2.99  12 2.99  13 2.99  18 2.99
                            27 2.99   6 2.99   4 2.99   2 2.99
   4  0.750  0.250  0.500-   6 2.99   8 2.99  10 2.99  29 2.99  13 2.99  31 2.99  14 2.99  19 2.99
                            21 2.99  28 2.99   3 2.99  20 2.99
   5  0.000  0.750  0.250-   3 2.99  12 2.99  14 2.99  25 2.99  15 2.99   1 2.99  16 2.99  10 2.99
                             2 2.99   7 2.99  22 2.99   6 2.99
   6  0.000  0.000  0.500-   4 2.99   7 2.99  11 2.99  13 2.99   8 2.99  16 2.99   1 2.99  17 2.99
                             3 2.99  23 2.99  21 2.99   5 2.99
   7  0.250  0.750  0.500-   6 2.99  16 2.99  29 2.99  30 2.99  11 2.99  18 2.99  14 2.99  19 2.99
                             5 2.99  26 2.99  25 2.99  23 2.99
   8  0.750  0.000  0.750-   2 2.99   4 2.99  11 2.99  31 2.99  27 2.99   6 2.99  21 2.99  26 2.99
                            12 2.99  19 2.99   9 2.99   1 2.99
   9  0.750  0.250  0.000-   3 2.99  12 2.99  20 2.99  32 2.99  28 2.99  21 2.99  22 2.99  27 2.99
                            31 2.99  13 2.99  10 2.99   8 2.99
  10  0.750  0.500  0.250-   2 2.99   4 2.99  13 2.99  18 2.99  22 2.99  29 2.99  28 2.99   5 2.99
                            14 2.99  32 2.99   9 2.99   1 2.99
  11  0.000  0.750  0.750-   6 2.99   8 2.99  22 2.99  30 2.99   7 2.99   2 2.99  23 2.99  20 2.99
                             1 2.99  15 2.99  14 2.99  12 2.99
  12  0.000  0.000  0.000-   5 2.99   9 2.99  15 2.99  21 2.99   3 2.99  23 2.99   2 2.99  24 2.99
                            16 2.99   8 2.99  13 2.99  11 2.99
  13  0.000  0.250  0.250-   6 2.99  10 2.99  16 2.99  22 2.99   4 2.99  24 2.99   3 2.99  25 2.99
                            17 2.99   9 2.99  14 2.99  12 2.99
  14  0.000  0.500  0.500-   1 2.99   5 2.99  17 2.99  21 2.99  20 2.99  25 2.99   4 2.99   7 2.99
                            10 2.99  30 2.99  13 2.99  11 2.99
  15  0.250  0.750  0.000-  12 2.99  23 2.99  25 2.99  32 2.99  26 2.99   5 2.99  27 2.99  22 2.99
                            11 2.99  18 2.99  30 2.99  16 2.99
  16  0.250  0.000  0.250-   7 2.99  13 2.99  18 2.99  24 2.99   6 2.99  27 2.99   5 2.99  28 2.99
                            19 2.99  12 2.99  17 2.99  15 2.99
  17  0.250  0.250  0.500-  14 2.99  19 2.99  23 2.99  25 2.99  21 2.99  28 2.99   6 2.99  29 2.99
                            13 2.99  31 2.99  30 2.99  16 2.99
  18  0.500  0.750  0.250-  10 2.99  16 2.99  27 2.99  29 2.99   2 2.99   7 2.99   3 2.99  25 2.99
                             1 2.99  15 2.99  19 2.99  32 2.99
  19  0.500  0.000  0.500-   1 2.99  17 2.99  26 2.99  28 2.99   3 2.99  23 2.99   4 2.99   7 2.99
                             8 2.99  16 2.99  18 2.99  31 2.99
  20  0.750  0.500  0.750-   1 2.99   9 2.99  21 2.99  26 2.99  14 2.99  32 2.99  31 2.99  11 2.99
                            22 2.99  29 2.99   4 2.99   2 2.99
  21  0.000  0.250  0.750-  12 2.99  14 2.99  20 2.99  23 2.99   9 2.99  17 2.99   8 2.99  30 2.99
                            24 2.99   4 2.99  22 2.99   6 2.99
  22  0.000  0.500  0.000-   2 2.99  11 2.99  13 2.99  24 2.99  10 2.99  30 2.99   9 2.99  15 2.99
                            25 2.99  20 2.99  21 2.99   5 2.99
  23  0.250  0.000  0.750-  15 2.99  17 2.99  21 2.99  26 2.99  12 2.99  19 2.99  11 2.99  31 2.99
                            27 2.99   6 2.99  24 2.99   7 2.99
  24  0.250  0.250  0.000-  16 2.99  22 2.99  27 2.99  30 2.99  13 2.99  31 2.99  12 2.99  32 2.99
                            28 2.99  21 2.99  25 2.99  23 2.99
  25  0.250  0.500  0.250-   5 2.99  15 2.99  17 2.99  28 2.99  14 2.99  32 2.99  13 2.99  18 2.99
                            29 2.99  22 2.99  24 2.99   7 2.99
  26  0.500  0.750  0.750-  19 2.99  20 2.99  23 2.99  32 2.99   1 2.99  15 2.99  30 2.99   8 2.99
                             7 2.99   2 2.99  27 2.99  29 2.99
  27  0.500  0.000  0.000-   2 2.99  18 2.99  24 2.99  31 2.99  16 2.99   8 2.99   9 2.99  15 2.99
                             3 2.99  23 2.99  28 2.99  26 2.99
  28  0.500  0.250  0.250-   3 2.99  19 2.99  25 2.99  32 2.99  17 2.99   9 2.99  10 2.99  16 2.99
                             4 2.99  24 2.99  29 2.99  27 2.99
  29  0.500  0.500  0.500-   4 2.99   7 2.99  18 2.99  31 2.99  30 2.99  10 2.99  17 2.99   1 2.99
                            20 2.99  25 2.99  26 2.99  28 2.99
  30  0.250  0.500  0.750-   7 2.99  11 2.99  24 2.99  31 2.99  29 2.99  22 2.99  21 2.99  26 2.99
                            14 2.99  32 2.99  17 2.99  15 2.99
  31  0.500  0.250  0.750-   8 2.99  27 2.99  29 2.99  30 2.99  24 2.99   4 2.99  20 2.99  23 2.99
                             9 2.99  17 2.99  19 2.99  32 2.99
  32  0.500  0.500  0.000-   9 2.99  15 2.99  26 2.99  28 2.99  20 2.99  25 2.99  24 2.99   2 2.99
                            10 2.99  30 2.99  18 2.99  31 2.99

  LATTYP: Found a simple cubic cell.
 ALAT       =     8.4507526300

  Lattice vectors:

 A1 = (   8.4507526300,   0.0000000000,   0.0000000000)
 A2 = (   0.0000001500,   8.4507526300,   0.0000000000)
 A3 = (   0.0000001500,   0.0000001500,   8.4507526300)
 Subroutine PRICEL returns following result:

  LATTYP: Found a face centered cubic cell.
 ALAT       =     4.2253763525

  Lattice vectors:

 A1 = (   2.1126881950,   2.1126881575,   0.0000000000)
 A2 = (   2.1126881200,  -0.0000000375,  -2.1126881575)
 A3 = (   0.0000000000,   2.1126881200,  -2.1126881575)

  32 primitive cells build up your supercell.

Analysis of symmetry for initial positions (statically):

 Routine SETGRP: Setting up the symmetry group for a
 simple cubic supercell.

 Subroutine GETGRP returns: Found 48 space group operations
 (whereof 48 operations were pure point group operations)
 out of a pool of 48 trial point group operations.

The static configuration has the point symmetry O_h .

Analysis of symmetry for dynamics (positions and initial velocities):

 Subroutine DYNSYM returns: Found 48 space group operations
 (whereof 48 operations were pure point group operations)
 out of a pool of 48 trial space group operations
 (whereof 48 operations were pure point group operations)
 and found also    32 'primitive' translations

The dynamic configuration has the point symmetry O_h .

 KPOINTS: Automatic mesh

Automatic generation of k-mesh.

 Subroutine IBZKPT returns following result:

 Found     20 irreducible k-points:

 Following reciprocal coordinates:
            Coordinates               Weight
  0.062500  0.062500  0.062500      8.000000
  0.187500  0.062500  0.062500     24.000000
  0.312500  0.062500  0.062500     24.000000
  0.437500  0.062500  0.062500     24.000000
  0.187500  0.187500  0.062500     24.000000
  0.312500  0.187500  0.062500     48.000000
  0.437500  0.187500  0.062500     48.000000
  0.312500  0.312500  0.062500     24.000000
  0.437500  0.312500  0.062500     48.000000
  0.437500  0.437500  0.062500     24.000000
  0.187500  0.187500  0.187500      8.000000
  0.312500  0.187500  0.187500     24.000000
  0.437500  0.187500  0.187500     24.000000
  0.312500  0.312500  0.187500     24.000000
  0.437500  0.312500  0.187500     48.000000
  0.437500  0.437500  0.187500     24.000000
  0.312500  0.312500  0.312500      8.000000
  0.437500  0.312500  0.312500     24.000000
  0.437500  0.437500  0.312500     24.000000
  0.437500  0.437500  0.437500      8.000000

 Following cartesian coordinates:
            Coordinates               Weight
  0.007396  0.007396  0.007396      8.000000
  0.022187  0.007396  0.007396     24.000000
  0.036979  0.007396  0.007396     24.000000
  0.051771  0.007396  0.007396     24.000000
  0.022187  0.022187  0.007396     24.000000
  0.036979  0.022187  0.007396     48.000000
  0.051771  0.022187  0.007396     48.000000
  0.036979  0.036979  0.007396     24.000000
  0.051771  0.036979  0.007396     48.000000
  0.051771  0.051771  0.007396     24.000000
  0.022187  0.022187  0.022187      8.000000
  0.036979  0.022187  0.022187     24.000000
  0.051771  0.022187  0.022187     24.000000
  0.036979  0.036979  0.022187     24.000000
  0.051771  0.036979  0.022187     48.000000
  0.051771  0.051771  0.022187     24.000000
  0.036979  0.036979  0.036979      8.000000
  0.051771  0.036979  0.036979     24.000000
  0.051771  0.051771  0.036979     24.000000
  0.051771  0.051771  0.051771      8.000000

 I would recommend the setting:
   dimension x,y,z NGX =    68 NGY =   68 NGZ =   68
 SYSTEM =  No title
 POSCAR =  No title

 Startparameter for this run:
   NWRITE =      2    write-flag & timer
   PREC   = accura    medium, high low
   ISTART =      0    job   : 0-new  1-cont  2-samecut
   ICHARG =      2    charge: 1-file 2-atom 10-const
   ISPIN  =      1    spin polarized calculation?
   LNONCOLLINEAR =      F non collinear calculations
   LSORBIT =      F    spin-orbit coupling
   INIWAV =      1    electr: 0-lowe 1-rand  2-diag
   LASPH  =      F    aspherical Exc in radial PAW
   METAGGA=      F    non-selfconsistent MetaGGA calc.

 Electronic Relaxation 1
   ENCUT  =  600.0 eV  44.10 Ry    6.64 a.u.  16.88 16.88 16.88*2*pi/ulx,y,z
   ENINI  =  600.0     initial cutoff
   ENAUG  =  412.5 eV  augmentation charge cutoff
   NELM   =     60;   NELMIN=  2; NELMDL=-12     # of ELM steps
   EDIFF  = 0.1E-04   stopping-criterion for ELM
   LREAL  =      F    real-space projection
   LCOMPAT=      F    compatible to vasp.4.4
   LREAL_COMPAT= F    compatible to vasp.4.5.1-3
   GGA_COMPAT  = T    GGA compatible to vasp.4.4-vasp.4.6
   LMAXPAW     = -100 max onsite density
   LMAXMIX     =    2 max onsite mixed and CHGCAR
   VOSKOWN=      1    Vosko Wilk Nusair interpolation
   ROPT   =    0.00000
 Ionic relaxation
   EDIFFG = -.2E-01   stopping-criterion for IOM
   NSW    =    100    number of steps for IOM
   NBLOCK =      1;   KBLOCK =    100    inner block; outer block
   IBRION =      2    ionic relax: 0-MD 1-quasi-New 2-CG
   NFREE  =      1    steps in history (QN), initial steepest desc. (CG)
   ISIF   =      2    stress and relaxation
   IWAVPR =     11    prediction:  0-non 1-charg 2-wave 3-comb
[...]
  weight for this iteration     100.00

[...]

 eigenvalues of (default mixing * dielectric matrix)
  average eigenvalue GAMMA=   1.0523
  1.0523

[...]

 eigenvalue-minimisations  :  8480
 total energy-change (2. order) :-0.6027516E-03  (-0.9650092E-03)
 number of electron  352.0000013 magnetization
 augmentation part   169.1829309 magnetization

[...]

 Broyden mixing:
  rms(total) = 0.26613E-03    rms(broyden)= 0.26605E-03
  rms(prec ) = 0.34553E-03
  weight for this iteration     100.00

 eigenvalues of (default mixing * dielectric matrix)
  average eigenvalue GAMMA=   1.8379
  2.8125  2.8125  2.3673  0.9645  1.0352  1.0352

[...]

----------------------------------------- Iteration    1(  19)  ---------------------------------------

 eigenvalue-minimisations  :  4516
 total energy-change (2. order) : 0.6680973E-05  (-0.1090315E-06)
 number of electron  352.0000013 magnetization
 augmentation part   169.1566744 magnetization

 Free energy of the ion-electron system (eV)
  alpha Z        PSCENC =      3013.02153097
  Ewald energy   TEWEN  =    -30249.78966039
  -1/2 Hartree   DENC   =     -6618.95326336
  -V(xc)+E(xc)   XCENC  =      -364.29048583
  PAW double counting   =     27659.35647297   -26235.02208275
  entropy T*S    EENTRO =        -0.01186611
  eigenvalues    EBANDS =      -491.65594437
  atomic energy  EATOM  =     33197.16788402
  free energy    TOTEN  =       -90.17741485 eV

  energy without entropy =      -90.16554874  energy(sigma->0) =      -90.17345948

 average (electrostatic) potential at core
  the test charge radii are     1.1249
  (the norm of the test charge is              1.0000)
       1 -41.8921       2 -41.8921       3 -41.8921       4 -41.8921       5 -41.8921
       6 -41.8921       7 -41.8921       8 -41.8921       9 -41.8921      10 -41.8921
      11 -41.8921      12 -41.8921      13 -41.8921      14 -41.8921      15 -41.8921
      16 -41.8921      17 -41.8921      18 -41.8921      19 -41.8921      20 -41.8921
      21 -41.8921      22 -41.8921      23 -41.8921      24 -41.8921      25 -41.8921
      26 -41.8921      27 -41.8921      28 -41.8921      29 -41.8921      30 -41.8921
      31 -41.8921      32 -41.8921

 E-fermi :   2.7138     XC(G=0): -11.6183     alpha+bet : -7.7206
   add alpha+bet to get absolut eigen values

 k-point   1 :       0.0625    0.0625    0.0625
  band No.  band energies     occupation
      1      -4.3599      2.00000
      2      -3.1702      2.00000
      3      -3.1702      2.00000
      4      -3.1702      2.00000
      5      -3.1520      2.00000
      6      -3.1418      2.00000
      7      -3.1418      2.00000
      8      -3.1418      2.00000
      9      -3.0685      2.00000
     10      -3.0685      2.00000
     11      -3.0685      2.00000
     12      -2.8135      2.00000
     13      -2.8135      2.00000
     14      -2.8135      2.00000
     15      -2.7225      2.00000
     16      -2.7225      2.00000
     17      -2.7225      2.00000
     18      -2.5408      2.00000
     19      -2.5408      2.00000
     20      -2.5408      2.00000
     21      -2.5408      2.00000
     22      -2.5408      2.00000
     23      -2.5408      2.00000
     24      -2.5381      2.00000
     25      -2.5381      2.00000
     26      -2.5381      2.00000
     27      -2.4165      2.00000
     28      -2.4165      2.00000
     29      -2.4165      2.00000
     30      -2.3263      2.00000
     31      -2.3263      2.00000
     32      -2.3263      2.00000
     33      -2.3074      2.00000
     34      -2.3074      2.00000
     35      -2.3074      2.00000
     36      -2.2891      2.00000
     37      -2.2891      2.00000
     38      -2.2891      2.00000
     39      -2.2891      2.00000
     40      -2.2891      2.00000
     41      -2.2891      2.00000
     42      -2.1534      2.00000
     43      -2.1534      2.00000
     44      -2.1534      2.00000
     45      -2.1534      2.00000
     46      -2.1534      2.00000
     47      -2.1534      2.00000
     48      -2.0765      2.00000
     49      -2.0765      2.00000
     50      -2.0765      2.00000
     51      -2.0735      2.00000
     52      -2.0735      2.00000
     53      -2.0735      2.00000
     54      -2.0735      2.00000
     55      -2.0735      2.00000
     56      -2.0735      2.00000
     57      -2.0300      2.00000
     58      -2.0300      2.00000
     59      -2.0300      2.00000
     60      -1.9035      2.00000
[...]
    198       8.3963      0.00000
    199       8.3963      0.00000
    200       8.3964      0.00000
    201       8.3965      0.00000
    202       8.4009      0.00000
    203       8.7695      0.00000
    204       8.7709      0.00000
    205       8.7890      0.00000
    206       9.3442      0.00000
    207       9.3454      0.00000
    208       9.3498      0.00000
    209       9.3750      0.00000
    210       9.6599      0.00000
    211      10.3792      0.00000
    212      10.4182      0.00000

[...]

 k-point  20 :       0.4375    0.4375    0.4375
  band No.  band energies     occupation
      1      -3.2851      2.00000
      2      -3.1536      2.00000
      3      -3.1536      2.00000
      4      -3.1536      2.00000
      5      -3.0789      2.00000
      6      -3.0789      2.00000
      7      -3.0789      2.00000
      8      -3.0581      2.00000
      9      -2.8038      2.00000
     10      -2.8038      2.00000
     11      -2.8038      2.00000
     12      -2.7676      2.00000
     13      -2.7676      2.00000
     14      -2.7676      2.00000
     15      -2.7496      2.00000
     16      -2.7496      2.00000
     17      -2.7496      2.00000
     18      -2.7496      2.00000
     19      -2.7496      2.00000
     20      -2.7496      2.00000
     21      -2.7375      2.00000
     22      -2.7375      2.00000
     23      -2.7375      2.00000
     24      -2.7340      2.00000
     25      -2.7340      2.00000
     26      -2.7340      2.00000
     27      -2.7340      2.00000
     28      -2.7340      2.00000
     29      -2.7340      2.00000
     30      -2.7262      2.00000
     31      -2.7262      2.00000
     32      -2.7262      2.00000
     33      -2.4300      2.00000
     34      -2.4300      2.00000
     35      -2.4300      2.00000
     36      -2.3257      2.00000
     37      -2.3257      2.00000
     38      -2.3257      2.00000
     39      -2.3087      2.00000
     40      -2.3087      2.00000
     41      -2.3087      2.00000
     42      -2.3087      2.00000
     43      -2.3087      2.00000
     44      -2.3087      2.00000
     45      -2.2133      2.00000
     46      -2.2133      2.00000
     47      -2.2133      2.00000
     48      -2.2133      2.00000
     49      -2.2133      2.00000
     50      -2.2133      2.00000
     51      -2.2082      2.00000
     52      -2.2082      2.00000
     53      -2.2082      2.00000
     54      -2.1324      2.00000
     55      -2.1324      2.00000
     56      -2.1324      2.00000
     57      -1.7616      2.00000
     58      -1.7096      2.00000
     59      -1.7096      2.00000
     60      -1.7096      2.00000
[...]
    198       7.7706     -0.00000
    199       8.1923      0.00000
    200       8.1923      0.00000
    201       8.1924      0.00000
    202       8.1937      0.00000
    203       8.1980      0.00000
    204       8.2269      0.00000
    205       8.5554      0.00000
    206       8.5554      0.00000
    207       8.5566      0.00000
    208       8.5895      0.00000
    209       8.6847      0.00000
    210       8.9850      0.00000
    211       9.0109      0.00000
    212       9.1262      0.00000

 soft charge-density along one line, spin component           1
         0         1         2         3         4         5         6         7         8         9
 total charge-density along one line

------------------------ aborting loop because EDIFF is reached ----------------------------------------

  FREE ENERGIE OF THE ION-ELECTRON SYSTEM (eV)
  free  energy   TOTEN  =       -90.177415 eV

  energy  without entropy=      -90.165549  energy(sigma->0) =      -90.173459

  FORCE on cell =-STRESS in cart. coord.  units (eV/reduce length):
  Direction    X        Y        Z        XY       YZ       ZX
  Alpha Z   3013.02   3013.02   3013.02
  Ewald   -10083.31 -10083.31 -10083.31     -0.00     -0.00     -0.00
  Hartree   2206.32   2206.32   2206.32     -0.00     -0.00     -0.00
  E(xc)    -1856.84  -1856.84  -1856.84     -0.00     -0.00     -0.00
  Local     3147.43   3147.43   3147.43      0.00      0.00      0.00
  n-local  -2134.14  -2129.63  -2123.65      2.67     -0.41      1.34
  augment   1339.68   1339.68   1339.68     -0.00     -0.00     -0.00
  Kinetic   4341.22   4348.74   4358.78      2.15     -3.47      0.24
  Total      -13.26    -13.26    -13.26     -0.00     -0.00     -0.00
  in kB      -35.19    -35.19    -35.19     -0.00     -0.00     -0.00

 VOLUME and BASIS-vectors are now :
  energy-cutoff  :      600.00
  volume of cell :      603.51
      direct lattice vectors                 reciprocal lattice vectors
     8.450752630  0.000000000  0.000000000     0.118332656 -0.000000002 -0.000000002
     0.000000150  8.450752630  0.000000000     0.000000000  0.118332656 -0.000000002
     0.000000150  0.000000150  8.450752630     0.000000000  0.000000000  0.118332656

  length of vectors
     8.450752630  8.450752630  8.450752630     0.118332656  0.118332656  0.118332656

 FORCES acting on ions
    electron-ion (+dipol)            ewald-force                    non-local-force                 convergence-correction
   0.690E-12 -.171E-10 0.354E-11   -.533E-13 -.153E-12 0.605E-13   0.215E-23 0.118E-23 -.123E-23   0.810E-13 -.461E-13 -.693E-12
   0.696E-12 -.150E-11 -.428E-12   -.426E-13 -.185E-12 0.155E-14   0.204E-23 0.509E-23 0.662E-24   -.422E-13 -.429E-12 0.990E-12
   0.687E-12 -.480E-13 -.697E-11   -.355E-13 -.908E-13 0.213E-13   -.573E-23 0.515E-24 -.250E-23   -.117E-12 -.295E-12 -.153E-12
   0.688E-12 0.438E-11 0.229E-11   0.131E-12 -.139E-12 0.127E-12   -.480E-23 -.215E-23 0.129E-23   0.423E-13 -.308E-13 -.270E-12
   -.269E-13 0.704E-12 0.178E-12   0.709E-13 -.213E-13 -.533E-13   0.112E-23 0.990E-24 -.217E-24   -.941E-13 -.127E-12 -.290E-12
   -.296E-13 -.442E-13 0.418E-12   -.469E-13 -.110E-12 0.732E-14   0.899E-24 -.398E-23 0.110E-24   0.538E-13 -.111E-12 -.390E-12
   0.195E-12 -.143E-11 0.166E-11   0.711E-13 -.110E-12 0.539E-13   -.279E-23 -.642E-24 -.289E-24   -.143E-12 -.404E-13 -.392E-12
   0.688E-12 0.153E-12 0.251E-11   -.355E-13 -.625E-13 0.249E-13   0.595E-24 -.209E-23 0.263E-23   0.524E-13 0.990E-13 -.258E-12
   0.692E-12 -.110E-10 -.627E-12   0.711E-13 -.426E-13 0.340E-14   0.111E-24 0.771E-24 -.838E-24   -.206E-12 0.371E-12 0.624E-12
   0.697E-12 -.148E-11 0.847E-11   0.426E-13 0.739E-13 -.142E-13   -.145E-23 0.541E-23 -.936E-24   -.463E-13 0.337E-12 -.546E-12
   -.339E-13 0.696E-12 0.672E-12   0.375E-13 -.604E-13 0.355E-14   -.460E-23 -.198E-23 0.192E-23   0.203E-12 -.195E-12 -.915E-13
   -.407E-13 -.306E-13 -.105E-13   -.697E-13 -.370E-13 0.355E-13   0.596E-24 0.219E-23 0.453E-24   0.368E-12 -.360E-13 0.723E-12
   -.286E-13 0.164E-12 0.166E-12   0.296E-13 -.497E-13 0.178E-13   -.800E-23 -.252E-23 -.346E-23   0.209E-12 0.722E-13 -.351E-12
   -.205E-13 0.438E-12 0.424E-12   0.373E-13 0.959E-13 0.227E-13   -.412E-23 -.576E-23 0.213E-23   0.492E-13 0.154E-12 -.331E-12
   0.190E-12 0.287E-11 0.112E-11   0.853E-13 -.711E-13 -.249E-13   -.169E-23 0.692E-23 0.391E-24   -.173E-13 -.127E-12 0.695E-12
   0.198E-12 -.110E-13 -.195E-11   -.746E-13 -.628E-13 0.142E-13   -.184E-23 -.154E-23 0.897E-24   0.671E-13 -.128E-13 -.438E-12
   0.197E-12 0.220E-11 0.159E-11   -.426E-13 -.213E-13 0.428E-13   0.488E-23 0.314E-23 -.139E-23   -.109E-12 -.365E-13 -.285E-12
   0.418E-12 -.395E-11 -.453E-12   -.501E-13 -.128E-12 0.142E-13   -.396E-23 0.190E-23 0.124E-24   0.170E-12 -.798E-13 -.428E-12
   0.420E-12 -.239E-13 -.366E-11   0.738E-14 0.698E-13 -.128E-13   -.937E-24 0.263E-23 -.198E-23   0.265E-13 -.862E-13 -.543E-12
   0.698E-12 -.649E-12 -.129E-10   0.114E-12 0.834E-13 -.284E-13   -.142E-24 -.294E-23 -.609E-25   0.725E-16 -.580E-13 0.135E-12
   -.349E-13 0.170E-12 0.684E-12   0.495E-13 0.178E-13 0.711E-14   -.167E-23 -.159E-23 -.439E-24   0.199E-12 0.139E-12 0.526E-14
   -.323E-13 0.426E-12 -.196E-13   -.565E-13 0.131E-12 -.249E-13   -.382E-23 0.293E-23 0.895E-24   0.567E-13 0.692E-13 0.642E-12
   0.197E-12 -.576E-13 0.272E-11   0.320E-13 0.104E-12 0.142E-13   -.472E-23 -.468E-24 0.982E-24   -.103E-12 0.730E-13 0.860E-13
   0.191E-12 -.191E-11 0.118E-11   0.284E-13 0.426E-13 -.583E-13   0.639E-23 -.427E-23 -.733E-24   0.140E-12 0.487E-13 0.631E-12
   0.191E-12 0.412E-12 0.214E-11   -.853E-13 0.101E-12 0.568E-13   -.456E-23 -.202E-23 -.275E-24   -.209E-13 0.440E-13 -.530E-12
   0.425E-12 0.365E-11 0.638E-11   -.134E-13 -.142E-13 0.284E-13   -.554E-24 0.285E-24 0.204E-23   -.128E-12 -.272E-12 0.229E-13
   0.432E-12 0.106E-12 0.299E-11   0.562E-13 0.130E-12 -.568E-13   0.170E-25 0.126E-23 0.137E-23   -.288E-12 0.115E-12 0.911E-12
   0.419E-12 -.347E-11 -.736E-12   -.682E-13 0.284E-13 -.568E-13   0.111E-23 -.174E-23 -.238E-23   -.114E-12 -.420E-13 -.624E-12
   0.413E-12 -.342E-11 -.333E-11   0.756E-15 0.128E-12 -.487E-15   0.432E-23 0.269E-23 -.146E-23   0.295E-13 0.110E-12 -.372E-12
   0.192E-12 0.454E-12 -.138E-11   0.000E+00 0.894E-13 0.426E-13   -.722E-24 0.345E-23 0.137E-24   -.670E-13 -.406E-13 0.166E-12
   0.426E-12 -.281E-11 -.167E-11   -.388E-13 0.142E-12 -.711E-13   -.233E-24 -.307E-23 0.534E-26   -.106E-12 0.149E-12 0.231E-12
   0.425E-12 -.356E-11 0.229E-11   0.389E-13 0.156E-12 -.160E-15   0.421E-23 -.949E-24 0.201E-24   0.223E-13 -.918E-13 0.694E-12
   0.102E-10 -.357E-10 0.730E-11   0.191E-12 0.363E-13 0.197E-12   -.279E-22 0.366E-23 -.196E-23   0.167E-12 -.377E-12 -.430E-12

 POSITION                                       TOTAL-FORCE (eV/Angst)
      6.33806      6.33806      4.22538         0.000000      0.000000     -0.000000
      6.33806      6.33806      0.00000         0.000000      0.000000      0.000000
      6.33806      0.00000      2.11269         0.000000      0.000000     -0.000000
      6.33806      2.11269      4.22538         0.000000     -0.000000      0.000000
      0.00000      6.33806      2.11269         0.000000      0.000000      0.000000
      0.00000      0.00000      4.22538         0.000000      0.000000     -0.000000
      2.11269      6.33806      4.22538         0.000000     -0.000000     -0.000000
      6.33806      0.00000      6.33806         0.000000     -0.000000      0.000000
      6.33806      2.11269      0.00000        -0.000000     -0.000000     -0.000000
      6.33806      4.22538      2.11269         0.000000      0.000000      0.000000
      0.00000      6.33806      6.33806        -0.000000     -0.000000      0.000000
      0.00000      0.00000      0.00000        -0.000000      0.000000      0.000000
      0.00000      2.11269      2.11269         0.000000      0.000000      0.000000
      0.00000      4.22538      4.22538         0.000000     -0.000000      0.000000
      2.11269      6.33806      0.00000        -0.000000     -0.000000     -0.000000
      2.11269      0.00000      2.11269         0.000000      0.000000      0.000000
      2.11269      2.11269      4.22538        -0.000000      0.000000     -0.000000
      4.22538      6.33806      2.11269         0.000000     -0.000000     -0.000000
      4.22538      0.00000      4.22538        -0.000000     -0.000000     -0.000000
      6.33806      4.22538      6.33806        -0.000000     -0.000000      0.000000
      0.00000      2.11269      6.33806         0.000000     -0.000000      0.000000
      0.00000      4.22538      0.00000         0.000000     -0.000000     -0.000000
      2.11269      0.00000      6.33806        -0.000000     -0.000000     -0.000000
      2.11269      2.11269      0.00000         0.000000      0.000000     -0.000000
      2.11269      4.22538      2.11269         0.000000      0.000000      0.000000
      4.22538      6.33806      6.33806        -0.000000     -0.000000     -0.000000
      4.22538      0.00000      0.00000        -0.000000     -0.000000      0.000000
      4.22538      2.11269      2.11269         0.000000      0.000000     -0.000000
      4.22538      4.22538      4.22538        -0.000000      0.000000     -0.000000
      2.11269      4.22538      6.33806        -0.000000     -0.000000     -0.000000
      4.22538      2.11269      6.33806        -0.000000     -0.000000     -0.000000
      4.22538      4.22538      0.00000         0.000000      0.000000      0.000000
    total drift:                                0.000000     -0.000000      0.000000

 reached required accuracy - stopping structural energy minimisation
 writing wavefunctions