 vasp.4.6.28 25Jul05 complex
 executed on             LinuxIFC date 2016.12.21  13:14:43

 INCAR:
 POTCAR:   PAW_PBE Au 06Sep2000
 POTCAR:   PAW_PBE Au 06Sep2000
   VRHFIN =Au: s1d10

   TITEL  = PAW_PBE Au 06Sep2000
   POMASS =  196.966; ZVAL   =   11.000    mass and valenz
   ENMAX  =  229.948; ENMIN  =  172.461 eV
   QCUT   =   -4.111; QGAM   =    8.222    optimization parameters

   Description
     l     E      TYP  RCUT    TYP  RCUT
     2   .000     23  2.500
     2   .000     23  2.500
     0   .000     23  2.500
     0   .000     23  2.500
     1  -.200     23  2.500
     1   .000     23  2.500
     3   .000      7   .000

 PAW_PBE Au 06Sep2000                   :

 POSCAR: Au
  positions in direct lattice

 ion  position               nearest neighbor table
   1  0.000  0.000  0.000-   2 2.92   3 2.92   4 2.92   3 2.92   4 2.92   2 2.92   4 2.92   4 2.92
                             2 2.92   3 2.92   3 2.92   2 2.92
   2  0.500  0.500  0.000-   1 2.92   3 2.92   4 2.92   3 2.92   4 2.92   1 2.92   3 2.92   3 2.92
                             1 2.92   4 2.92   4 2.92   1 2.92
   3  0.500  0.000  0.500-   1 2.92   2 2.92   4 2.92   1 2.92   2 2.92   2 2.92   4 2.92   2 2.92
                             1 2.92   4 2.92   1 2.92   4 2.92
   4  0.000  0.500  0.500-   1 2.92   2 2.92   3 2.92   1 2.92   2 2.92   1 2.92   3 2.92   1 2.92
                             2 2.92   3 2.92   2 2.92   3 2.92

  LATTYP: Found a simple cubic cell.
 ALAT       =     4.1276003900

  Lattice vectors:

 A1 = (   4.1276003900,   0.0000000000,   0.0000000000)
 A2 = (   0.0000000000,   4.1276003900,   0.0000000000)
 A3 = (   0.0000000000,   0.0000000000,   4.1276003900)
 Subroutine PRICEL returns following result:

  LATTYP: Found a face centered cubic cell.
 ALAT       =     4.1276003900

  Lattice vectors:

 A1 = (   2.0638001950,   2.0638001950,   0.0000000000)
 A2 = (   2.0638001950,   0.0000000000,  -2.0638001950)
 A3 = (   0.0000000000,   2.0638001950,  -2.0638001950)

   4 primitive cells build up your supercell.

Analysis of symmetry for initial positions (statically):

 Routine SETGRP: Setting up the symmetry group for a
 simple cubic supercell.

 Subroutine GETGRP returns: Found 48 space group operations
 (whereof 48 operations were pure point group operations)
 out of a pool of 48 trial point group operations.

The static configuration has the point symmetry O_h .

Analysis of symmetry for dynamics (positions and initial velocities):

 Subroutine DYNSYM returns: Found 48 space group operations
 (whereof 48 operations were pure point group operations)
 out of a pool of 48 trial space group operations
 (whereof 48 operations were pure point group operations)
 and found also     4 'primitive' translations

The dynamic configuration has the point symmetry O_h .

 KPOINTS: Automatic mesh

Automatic generation of k-mesh.
 generate k-points for:  12  12  12

 Subroutine IBZKPT returns following result:

 Found     84 irreducible k-points:

 Following reciprocal coordinates:
            Coordinates               Weight
  0.000000  0.000000  0.000000      1.000000
  0.083333  0.000000  0.000000      6.000000
  0.166667  0.000000  0.000000      6.000000
  0.250000  0.000000  0.000000      6.000000
  0.333333  0.000000  0.000000      6.000000
  0.416667  0.000000  0.000000      6.000000
  0.500000  0.000000  0.000000      3.000000
  0.083333  0.083333  0.000000     12.000000
  0.166667  0.083333  0.000000     24.000000
  0.250000  0.083333  0.000000     24.000000
  0.333333  0.083333  0.000000     24.000000
  0.416667  0.083333  0.000000     24.000000
  0.500000  0.083333  0.000000     12.000000
  0.166667  0.166667  0.000000     12.000000
  0.250000  0.166667  0.000000     24.000000
  0.333333  0.166667  0.000000     24.000000
  0.416667  0.166667  0.000000     24.000000
  0.500000  0.166667  0.000000     12.000000
  0.250000  0.250000  0.000000     12.000000
  0.333333  0.250000  0.000000     24.000000
  0.416667  0.250000  0.000000     24.000000
  0.500000  0.250000  0.000000     12.000000
  0.333333  0.333333  0.000000     12.000000
  0.416667  0.333333  0.000000     24.000000
  0.500000  0.333333  0.000000     12.000000
  0.416667  0.416667  0.000000     12.000000
  0.500000  0.416667  0.000000     12.000000
  0.500000  0.500000  0.000000      3.000000
  0.083333  0.083333  0.083333      8.000000
  0.166667  0.083333  0.083333     24.000000
  0.250000  0.083333  0.083333     24.000000
  0.333333  0.083333  0.083333     24.000000
  0.416667  0.083333  0.083333     24.000000
  0.500000  0.083333  0.083333     12.000000
  0.166667  0.166667  0.083333     24.000000
  0.250000  0.166667  0.083333     48.000000
  0.333333  0.166667  0.083333     48.000000
  0.416667  0.166667  0.083333     48.000000
  0.500000  0.166667  0.083333     24.000000
  0.250000  0.250000  0.083333     24.000000
  0.333333  0.250000  0.083333     48.000000
  0.416667  0.250000  0.083333     48.000000
  0.500000  0.250000  0.083333     24.000000
  0.333333  0.333333  0.083333     24.000000
  0.416667  0.333333  0.083333     48.000000
  0.500000  0.333333  0.083333     24.000000
  0.416667  0.416667  0.083333     24.000000
  0.500000  0.416667  0.083333     24.000000
  0.500000  0.500000  0.083333      6.000000
  0.166667  0.166667  0.166667      8.000000
  0.250000  0.166667  0.166667     24.000000
  0.333333  0.166667  0.166667     24.000000
  0.416667  0.166667  0.166667     24.000000
  0.500000  0.166667  0.166667     12.000000
  0.250000  0.250000  0.166667     24.000000
  0.333333  0.250000  0.166667     48.000000
  0.416667  0.250000  0.166667     48.000000
  0.500000  0.250000  0.166667     24.000000
  0.333333  0.333333  0.166667     24.000000
  0.416667  0.333333  0.166667     48.000000
[...]
  0.416667  0.333333  0.250000     48.000000
  0.500000  0.333333  0.250000     24.000000
  0.416667  0.416667  0.250000     24.000000
  0.500000  0.416667  0.250000     24.000000
  0.500000  0.500000  0.250000      6.000000
  0.333333  0.333333  0.333333      8.000000
  0.416667  0.333333  0.333333     24.000000
  0.500000  0.333333  0.333333     12.000000
  0.416667  0.416667  0.333333     24.000000
  0.500000  0.416667  0.333333     24.000000
  0.500000  0.500000  0.333333      6.000000
  0.416667  0.416667  0.416667      8.000000
  0.500000  0.416667  0.416667     12.000000
  0.500000  0.500000  0.416667      6.000000
  0.500000  0.500000  0.500000      1.000000

 Following cartesian coordinates:
            Coordinates               Weight
  0.000000  0.000000  0.000000      1.000000
  0.020189  0.000000  0.000000      6.000000
  0.040379  0.000000  0.000000      6.000000
  0.060568  0.000000  0.000000      6.000000
  0.080757  0.000000  0.000000      6.000000
  0.100946  0.000000  0.000000      6.000000
  0.121136  0.000000  0.000000      3.000000
  0.020189  0.020189  0.000000     12.000000
  0.040379  0.020189  0.000000     24.000000
  0.060568  0.020189  0.000000     24.000000
  0.080757  0.020189  0.000000     24.000000
  0.100946  0.020189  0.000000     24.000000
  0.121136  0.020189  0.000000     12.000000
  0.040379  0.040379  0.000000     12.000000
  0.060568  0.040379  0.000000     24.000000
  0.080757  0.040379  0.000000     24.000000
  0.100946  0.040379  0.000000     24.000000
  0.121136  0.040379  0.000000     12.000000
  0.060568  0.060568  0.000000     12.000000
  0.080757  0.060568  0.000000     24.000000
  0.100946  0.060568  0.000000     24.000000
  0.121136  0.060568  0.000000     12.000000
  0.080757  0.080757  0.000000     12.000000
  0.100946  0.080757  0.000000     24.000000
  0.121136  0.080757  0.000000     12.000000
  0.100946  0.100946  0.000000     12.000000
  0.121136  0.100946  0.000000     12.000000
  0.121136  0.121136  0.000000      3.000000
  0.020189  0.020189  0.020189      8.000000
  0.040379  0.020189  0.020189     24.000000
  0.060568  0.020189  0.020189     24.000000
  0.080757  0.020189  0.020189     24.000000
  0.100946  0.020189  0.020189     24.000000
  0.121136  0.020189  0.020189     12.000000
  0.040379  0.040379  0.020189     24.000000
  0.060568  0.040379  0.020189     48.000000
  0.080757  0.040379  0.020189     48.000000
  0.100946  0.040379  0.020189     48.000000
  0.121136  0.040379  0.020189     24.000000
  0.060568  0.060568  0.020189     24.000000
  0.080757  0.060568  0.020189     48.000000
  0.100946  0.060568  0.020189     48.000000
  0.121136  0.060568  0.020189     24.000000
  0.080757  0.080757  0.020189     24.000000
  0.100946  0.080757  0.020189     48.000000
  0.121136  0.080757  0.020189     24.000000
  0.100946  0.100946  0.020189     24.000000
  0.121136  0.100946  0.020189     24.000000
  0.121136  0.121136  0.020189      6.000000
  0.040379  0.040379  0.040379      8.000000
  0.060568  0.040379  0.040379     24.000000
  0.080757  0.040379  0.040379     24.000000
  0.100946  0.040379  0.040379     24.000000
  0.121136  0.040379  0.040379     12.000000
  0.060568  0.060568  0.040379     24.000000
  0.080757  0.060568  0.040379     48.000000
  0.100946  0.060568  0.040379     48.000000
  0.121136  0.060568  0.040379     24.000000
  0.080757  0.080757  0.040379     24.000000
  0.100946  0.080757  0.040379     48.000000
[...]
  0.100946  0.080757  0.060568     48.000000
  0.121136  0.080757  0.060568     24.000000
  0.100946  0.100946  0.060568     24.000000
  0.121136  0.100946  0.060568     24.000000
  0.121136  0.121136  0.060568      6.000000
  0.080757  0.080757  0.080757      8.000000
  0.100946  0.080757  0.080757     24.000000
  0.121136  0.080757  0.080757     12.000000
  0.100946  0.100946  0.080757     24.000000
  0.121136  0.100946  0.080757     24.000000
  0.121136  0.121136  0.080757      6.000000
  0.100946  0.100946  0.100946      8.000000
  0.121136  0.100946  0.100946     12.000000
  0.121136  0.121136  0.100946      6.000000
  0.121136  0.121136  0.121136      1.000000

 I would recommend the setting:
   dimension x,y,z NGX =    30 NGY =   30 NGZ =   30
 SYSTEM =  unknown system
 POSCAR =  Au

 Startparameter for this run:
   NWRITE =      2    write-flag & timer
   PREC   = accura    medium, high low
   ISTART =      0    job   : 0-new  1-cont  2-samecut
   ICHARG =      2    charge: 1-file 2-atom 10-const
   ISPIN  =      1    spin polarized calculation?
   LNONCOLLINEAR =      F non collinear calculations
   LSORBIT =      F    spin-orbit coupling
   INIWAV =      1    electr: 0-lowe 1-rand  2-diag
   LASPH  =      F    aspherical Exc in radial PAW
   METAGGA=      F    non-selfconsistent MetaGGA calc.

 Electronic Relaxation 1
   ENCUT  =  500.0 eV  36.75 Ry    6.06 a.u.   7.53  7.53  7.53*2*pi/ulx,y,z
   ENINI  =  500.0     initial cutoff
   ENAUG  =  356.7 eV  augmentation charge cutoff
   NELM   =     60;   NELMIN=  2; NELMDL=  0     # of ELM steps
   EDIFF  = 0.1E-07   stopping-criterion for ELM
   LREAL  =      F    real-space projection
   LCOMPAT=      F    compatible to vasp.4.4
   LREAL_COMPAT= F    compatible to vasp.4.5.1-3
   GGA_COMPAT  = T    GGA compatible to vasp.4.4-vasp.4.6
   LMAXPAW     = -100 max onsite density
   LMAXMIX     =    2 max onsite mixed and CHGCAR
   VOSKOWN=      0    Vosko Wilk Nusair interpolation
[...]
 k-point 19 :  0.25000.25000.0000  plane waves:   1799
 k-point 20 :  0.33330.25000.0000  plane waves:   1787
 k-point 21 :  0.41670.25000.0000  plane waves:   1794
 k-point 22 :  0.50000.25000.0000  plane waves:   1776
 k-point 23 :  0.33330.33330.0000  plane waves:   1804
 k-point 24 :  0.41670.33330.0000  plane waves:   1784
 k-point 25 :  0.50000.33330.0000  plane waves:   1772
 k-point 26 :  0.41670.41670.0000  plane waves:   1774
 k-point 27 :  0.50000.41670.0000  plane waves:   1774
 k-point 28 :  0.50000.50000.0000  plane waves:   1772
 k-point 29 :  0.08330.08330.0833  plane waves:   1803
 k-point 30 :  0.16670.08330.0833  plane waves:   1800
 k-point 31 :  0.25000.08330.0833  plane waves:   1792
 k-point 32 :  0.33330.08330.0833  plane waves:   1789
 k-point 33 :  0.41670.08330.0833  plane waves:   1791
 k-point 34 :  0.50000.08330.0833  plane waves:   1794
 k-point 35 :  0.16670.16670.0833  plane waves:   1801
 k-point 36 :  0.25000.16670.0833  plane waves:   1796
 k-point 37 :  0.33330.16670.0833  plane waves:   1789
 k-point 38 :  0.41670.16670.0833  plane waves:   1787
 k-point 39 :  0.50000.16670.0833  plane waves:   1786
 k-point 40 :  0.25000.25000.0833  plane waves:   1794
 k-point 41 :  0.33330.25000.0833  plane waves:   1792
 k-point 42 :  0.41670.25000.0833  plane waves:   1789
 k-point 43 :  0.50000.25000.0833  plane waves:   1778
 k-point 44 :  0.33330.33330.0833  plane waves:   1784
 k-point 45 :  0.41670.33330.0833  plane waves:   1786
 k-point 46 :  0.50000.33330.0833  plane waves:   1772
 k-point 47 :  0.41670.41670.0833  plane waves:   1778
 k-point 48 :  0.50000.41670.0833  plane waves:   1774
 k-point 49 :  0.50000.50000.0833  plane waves:   1760
 k-point 50 :  0.16670.16670.1667  plane waves:   1791
 k-point 51 :  0.25000.16670.1667  plane waves:   1795
 k-point 52 :  0.33330.16670.1667  plane waves:   1790
 k-point 53 :  0.41670.16670.1667  plane waves:   1780
 k-point 54 :  0.50000.16670.1667  plane waves:   1774
 k-point 55 :  0.25000.25000.1667  plane waves:   1789
 k-point 56 :  0.33330.25000.1667  plane waves:   1790
 k-point 57 :  0.41670.25000.1667  plane waves:   1789
 k-point 58 :  0.50000.25000.1667  plane waves:   1772
 k-point 59 :  0.33330.33330.1667  plane waves:   1786
 k-point 60 :  0.41670.33330.1667  plane waves:   1778
[...]
 k-point 70 :  0.41670.33330.2500  plane waves:   1773
 k-point 71 :  0.50000.33330.2500  plane waves:   1780
 k-point 72 :  0.41670.41670.2500  plane waves:   1778
 k-point 73 :  0.50000.41670.2500  plane waves:   1774
 k-point 74 :  0.50000.50000.2500  plane waves:   1788
 k-point 75 :  0.33330.33330.3333  plane waves:   1770
 k-point 76 :  0.41670.33330.3333  plane waves:   1782
 k-point 77 :  0.50000.33330.3333  plane waves:   1784
 k-point 78 :  0.41670.41670.3333  plane waves:   1786
 k-point 79 :  0.50000.41670.3333  plane waves:   1778
 k-point 80 :  0.50000.50000.3333  plane waves:   1792
 k-point 81 :  0.41670.41670.4167  plane waves:   1790
 k-point 82 :  0.50000.41670.4167  plane waves:   1794
 k-point 83 :  0.50000.50000.4167  plane waves:   1788
 k-point 84 :  0.50000.50000.5000  plane waves:   1736

 maximum and minimum number of plane-waves per node :   1804  1736

 maximum number of plane-waves:   1804
 maximal index in each direction:
   IXMAX=  7   IYMAX=  7   IZMAX=  7
   IXMIN= -8   IYMIN= -8   IZMIN= -7

 WARNING: wrap around error must be expected set NGX to  32
 WARNING: wrap around error must be expected set NGY to  32
 NGZ is ok and might be reduce to  30

 parallel 3dFFT wavefunction:
    minimum data exchange during FFTs selected (reduces bandwidth)
 parallel 3dFFT charge:
    minimum data exchange during FFTs selected (reduces bandwidth)

Broyden mixing: mesh for mixing (old mesh)
   NGX = 15   NGY = 15   NGZ = 15
  (NGX  = 60   NGY  = 60   NGZ  = 60)
 gives a total of   3375 points
 initial charge density was supplied:
 charge density of overlapping atoms calculated
 number of electron   44.0000000 magnetization
 keeping initial charge density in first step

 Maximum index for augmentation-charges        45581 (set IRDMAX)

 First call to EWALD:  gamma=   0.429
 Maximum number of real-space cells 3x 3x 3
 Maximum number of reciprocal cells 3x 3x 3

----------------------------------------- Iteration    1(   1)  ---------------------------------------

 eigenvalue-minimisations  :  4704
 total energy-change (2. order) : 0.4425918E+03  (-0.2139666E+04)
 number of electron   44.0000000 magnetization
 augmentation part    44.0000000 magnetization

 Free energy of the ion-electron system (eV)
  alpha Z        PSCENC =       426.11142577
  Ewald energy   TEWEN  =     -3870.79413451
  -1/2 Hartree   DENC   =      -511.68654137
  -V(xc)+E(xc)   XCENC  =        61.02858970
  PAW double counting   =      2990.04966927    -2896.51663641
  entropy T*S    EENTRO =        -0.00010559
  eigenvalues    EBANDS =       540.18970946
  atomic energy  EATOM  =      3704.20985194
  free energy    TOTEN  =       442.59182826 eV

  energy without entropy =      442.59193384  energy(sigma->0) =      442.59188105

[...]

 eigenvalue-minimisations  :  4752
 total energy-change (2. order) :-0.4385328E+03  (-0.4180824E+03)
 number of electron   44.0000000 magnetization
 augmentation part    44.0000000 magnetization

[...]

 Broyden mixing:
  rms(total) = 0.57823E+00    rms(broyden)= 0.57823E+00
  rms(prec ) = 0.14625E+01
  weight for this iteration     100.00

[...]

 eigenvalues of (default mixing * dielectric matrix)
  average eigenvalue GAMMA=   1.2464
  1.2464

[...]

 average (electrostatic) potential at core
  the test charge radii are     1.2098
  (the norm of the test charge is              1.0000)
       1 -45.8516       2 -45.8516       3 -45.8516       4 -45.8516

 E-fermi :   5.3017     XC(G=0): -12.5341     alpha+bet : -9.8712
   add alpha+bet to get absolut eigen values

 k-point   1 :       0.0000    0.0000    0.0000
  band No.  band energies     occupation
      1      -4.1713      2.00000
      2      -1.4691      2.00000
      3      -1.4691      2.00000
      4      -1.4691      2.00000
      5      -1.1782      2.00000
      6      -1.1782      2.00000
      7      -1.1782      2.00000
      8       0.7786      2.00000
      9       0.7786      2.00000
     10       0.7786      2.00000
     11       2.2170      2.00000
     12       2.2170      2.00000
     13       3.3117      2.00000
     14       3.3117      2.00000
     15       3.3117      2.00000
     16       3.6575      2.00000
     17       3.6575      2.00000
     18       3.6575      2.00000
     19       3.6575      2.00000
     20       3.6575      2.00000
     21       3.6575      2.00000
     22       6.4729      0.00000
     23       6.4729      0.00000
     24       6.4729      0.00000
     25      10.9288      0.00000
     26      10.9288      0.00000
     27      10.9288      0.00000
     28      15.4713      0.00000

[...]

 soft charge-density along one line, spin component           1
         0         1         2         3         4         5         6         7         8         9
 total charge-density along one line

------------------------ aborting loop because EDIFF is reached ----------------------------------------

  FREE ENERGIE OF THE ION-ELECTRON SYSTEM (eV)
  free  energy   TOTEN  =       -13.052309 eV

  energy  without entropy=      -13.052225  energy(sigma->0) =      -13.052267

  FORCE on cell =-STRESS in cart. coord.  units (eV/reduce length):
  Direction    X        Y        Z        XY       YZ       ZX
  Alpha Z    426.11    426.11    426.11
  Ewald    -1290.27  -1290.27  -1290.27     -0.00     -0.00      0.00
  Hartree    156.16    156.16    156.16     -0.00     -0.00     -0.00
  E(xc)     -198.66   -198.66   -198.66     -0.00     -0.00     -0.00
  Local      322.83    322.83    322.83     -0.00      0.00     -0.00
  n-local   -185.25   -202.30   -206.83      1.59      5.35      2.21
  augment    171.82    171.82    171.82     -0.00     -0.00     -0.00
  Kinetic    616.22    612.73    607.83     -4.31     -2.40     -2.76
  Total        2.13      2.13      2.13     -0.00      0.00      0.00
  in kB       48.49     48.49     48.49     -0.00      0.00      0.00

 VOLUME and BASIS-vectors are now :
  energy-cutoff  :      500.00
  volume of cell :       70.32
      direct lattice vectors                 reciprocal lattice vectors
     4.127600390  0.000000000  0.000000000     0.242271515  0.000000000  0.000000000
     0.000000000  4.127600390  0.000000000     0.000000000  0.242271515  0.000000000
     0.000000000  0.000000000  4.127600390     0.000000000  0.000000000  0.242271515

[...]

 FORCES acting on ions
    electron-ion (+dipol)            ewald-force                    non-local-force                 convergence-correction
   -.612E-14 -.135E-13 -.159E-13   -.991E-14 -.217E-14 -.537E-14   -.517E-25 -.517E-25 0.181E-24   -.929E-14 0.160E-14 -.443E-13
   0.955E-13 0.158E-11 -.118E-11   0.491E-15 0.875E-14 -.540E-14   -.258E-25 -.517E-25 -.258E-25   0.156E-13 -.205E-14 -.465E-13
   0.959E-13 -.137E-13 -.288E-12   0.873E-14 -.818E-14 0.540E-14   -.258E-25 0.194E-24 0.000E+00   0.164E-13 0.769E-15 0.272E-13
   -.650E-14 0.933E-13 0.888E-13   0.186E-14 0.274E-14 0.538E-14   -.775E-25 0.388E-25 0.258E-25   -.922E-14 0.237E-14 0.267E-13
   0.179E-12 0.165E-11 -.140E-11   0.117E-14 0.114E-14 0.893E-17   -.181E-24 0.129E-24 0.181E-24   0.135E-13 0.269E-14 -.370E-13

 POSITION                                       TOTAL-FORCE (eV/Angst)
      0.00000      0.00000      0.00000        -0.000000     -0.000000     -0.000000
      2.06380      2.06380      0.00000         0.000000     -0.000000      0.000000
      2.06380      0.00000      2.06380         0.000000      0.000000     -0.000000
      0.00000      2.06380      2.06380         0.000000      0.000000     -0.000000
    total drift:                                0.000000      0.000000     -0.000000

[...]

 d Force = 0.0000000E+00[ 0.000E+00, 0.000E+00]  d Energy =-0.1990637E-01 0.199E-01
 d Force = 0.0000000E+00[ 0.000E+00, 0.000E+00]  d Ewald  =-0.9687219E+02 0.969E+02

[...]

 Steepest descent step on ions:
 trial-energy change:    0.019906  1 .order    0.011868   -0.163894    0.187630
  (g-gl).g = 0.164E+00      g.g   = 0.164E+00  gl.gl    = 0.000E+00
 g(Force)  = 0.442E-60   g(Stress)= 0.164E+00 ortho     = 0.000E+00
 gamma     =   0.00000
 trial     =   1.00000
 opt step  =   0.43256  (harmonic =   0.46624) maximal distance =0.00000000
 next E    =   -13.087105   (d E  =  -0.03480)

[...]

 d Force = 0.0000000E+00[ 0.000E+00, 0.000E+00]  d Energy = 0.5423288E-01-0.542E-01
 d Force = 0.0000000E+00[ 0.000E+00, 0.000E+00]  d Ewald  = 0.5436532E+02-0.544E+02

[...]

 eigenvalue-minimisations  :  5008
 total energy-change (2. order) : 0.7395706E-06  (-0.6354925E-06)
 number of electron   44.0000000 magnetization
 augmentation part    16.1821477 magnetization

[...]

 Broyden mixing:
  rms(total) = 0.48056E-05    rms(broyden)= 0.48056E-05
  rms(prec ) = 0.11881E-04
  weight for this iteration     100.00

 eigenvalues of (default mixing * dielectric matrix)
  average eigenvalue GAMMA=   1.6497
  2.7055  2.4303  1.1058  1.0151  0.9918

[...]

----------------------------------------- Iteration    4(   7)  ---------------------------------------

 eigenvalue-minimisations  :  2388
 total energy-change (2. order) :-0.3686182E-08  (-0.3670332E-10)
 number of electron   44.0000000 magnetization
 augmentation part    16.1821646 magnetization

 Free energy of the ion-electron system (eV)
  alpha Z        PSCENC =       412.34250575
  Ewald energy   TEWEN  =     -3828.64456067
  -1/2 Hartree   DENC   =      -485.91596455
  -V(xc)+E(xc)   XCENC  =        58.65093177
  PAW double counting   =      2991.23459640    -2907.32835797
  entropy T*S    EENTRO =        -0.00007814
  eigenvalues    EBANDS =        42.36443685
  atomic energy  EATOM  =      3704.20985194
  free energy    TOTEN  =       -13.08663861 eV

  energy without entropy =      -13.08656047  energy(sigma->0) =      -13.08659954

 average (electrostatic) potential at core
  the test charge radii are     1.2098
  (the norm of the test charge is              1.0000)
       1 -46.1406       2 -46.1406       3 -46.1406       4 -46.1406

 E-fermi :   4.9251     XC(G=0): -12.3389     alpha+bet : -9.5523
   add alpha+bet to get absolut eigen values

[...]

 k-point  84 :       0.5000    0.5000    0.5000
  band No.  band energies     occupation
      1      -1.8289      2.00000
      2      -1.8289      2.00000
      3      -1.8289      2.00000
      4      -1.8289      2.00000
      5       0.5150      2.00000
      6       0.5150      2.00000
      7       0.5150      2.00000
      8       0.5150      2.00000
      9       0.5150      2.00000
     10       0.5150      2.00000
     11       0.5150      2.00000
     12       0.5150      2.00000
     13       2.9732      2.00000
     14       2.9732      2.00000
     15       2.9732      2.00000
     16       2.9732      2.00000
     17       2.9732      2.00000
     18       2.9732      2.00000
     19       2.9732      2.00000
     20       2.9732      2.00000
     21       4.2768      2.00000
     22       4.2768      2.00000
     23       4.2768      2.00000
     24       4.2768      2.00000
     25       7.7139      0.00000
     26       7.7139      0.00000
     27       7.7139      0.00000
     28       7.7139      0.00000

 soft charge-density along one line, spin component           1
         0         1         2         3         4         5         6         7         8         9
 total charge-density along one line

------------------------ aborting loop because EDIFF is reached ----------------------------------------

 d Force = 0.0000000E+00[ 0.000E+00, 0.000E+00]  d Energy = 0.3294178E-05-0.329E-05
 d Force = 0.0000000E+00[ 0.000E+00, 0.000E+00]  d Ewald  = 0.3573031E+00-0.357E+00

  FREE ENERGIE OF THE ION-ELECTRON SYSTEM (eV)
  free  energy   TOTEN  =       -13.086639 eV

  energy  without entropy=      -13.086560  energy(sigma->0) =      -13.086600

  FORCE on cell =-STRESS in cart. coord.  units (eV/reduce length):
  Direction    X        Y        Z        XY       YZ       ZX
  Alpha Z    412.34    412.34    412.34
  Ewald    -1276.22  -1276.22  -1276.22     -0.00      0.00     -0.00
  Hartree    161.97    161.97    161.97     -0.00     -0.00     -0.00
  E(xc)     -198.25   -198.25   -198.25     -0.00      0.00      0.00
  Local      317.40    317.40    317.40      0.00     -0.00     -0.00
  n-local   -188.02   -204.97   -209.25      1.43      5.32      2.06
  augment    171.93    171.93    171.93     -0.00     -0.00     -0.00
  Kinetic    615.70    611.81    607.19     -4.16     -2.03     -2.67
  Total       -0.00     -0.00     -0.00      0.00     -0.00      0.00
  in kB       -0.02     -0.02     -0.02      0.00     -0.00      0.00

 VOLUME and BASIS-vectors are now :
  energy-cutoff  :      500.00
  volume of cell :       72.67
      direct lattice vectors                 reciprocal lattice vectors
     4.173041171 -0.000000000  0.000000000     0.239633389  0.000000000  0.000000000
    -0.000000000  4.173041171 -0.000000000     0.000000000  0.239633389  0.000000000
    -0.000000000  0.000000000  4.173041171     0.000000000  0.000000000  0.239633389

  length of vectors
     4.173041171  4.173041171  4.173041171     0.239633389  0.239633389  0.239633389

 FORCES acting on ions
    electron-ion (+dipol)            ewald-force                    non-local-force                 convergence-correction
   -.376E-14 -.971E-14 -.135E-13   0.491E-14 -.130E-13 0.313E-14   0.258E-25 0.646E-25 -.517E-25   -.739E-14 -.318E-14 -.459E-13
   0.940E-13 0.161E-11 -.120E-11   -.925E-14 -.118E-13 0.311E-14   0.560E-29 -.905E-25 -.646E-25   0.155E-13 -.369E-14 -.529E-13
   0.949E-13 -.103E-13 -.299E-12   0.181E-13 0.965E-14 -.369E-14   -.743E-25 0.517E-25 -.388E-25   0.152E-13 -.639E-15 0.298E-13
   -.396E-14 0.950E-13 0.895E-13   -.130E-13 0.109E-13 -.371E-14   0.776E-25 0.103E-24 0.775E-25   -.442E-14 -.409E-14 0.314E-13
   0.181E-12 0.169E-11 -.142E-11   0.812E-15 -.433E-14 -.116E-14   0.291E-25 0.129E-24 -.775E-25   0.188E-13 -.116E-13 -.375E-13

 POSITION                                       TOTAL-FORCE (eV/Angst)
     -0.00000     -0.00000     -0.00000        -0.000000     -0.000000      0.000000
      2.08652      2.08652     -0.00000         0.000000     -0.000000     -0.000000
      2.08652     -0.00000      2.08652        -0.000000      0.000000      0.000000
     -0.00000      2.08652      2.08652        -0.000000      0.000000      0.000000
    total drift:                                0.000000      0.000000     -0.000000

 reached required accuracy - stopping structural energy minimisation