 vasp.4.6.28 25Jul05 complex
 executed on             LinuxIFC date 2017.01.14  08:47:49

 INCAR:
 POTCAR:   PAW_PBE Al 04Jan2001
 POTCAR:   PAW_PBE Al 04Jan2001
   VRHFIN =Al: s2p1

   TITEL  = PAW_PBE Al 04Jan2001
   POMASS =   26.982; ZVAL   =    3.000    mass and valenz
   ENMAX  =  240.300; ENMIN  =  180.225 eV
   QCUT   =   -4.203; QGAM   =    8.405    optimization parameters

   Description
     l     E      TYP  RCUT    TYP  RCUT
     0   .000     23  1.900
     0   .000     23  1.900
     1   .000     23  1.900
     1  1.000     23  1.900
     2   .000      7  1.900

 PAW_PBE Al 04Jan2001                   :

 POSCAR: Al
  positions in direct lattice

 ion  position               nearest neighbor table
   1  0.500  0.500  0.000-   2 2.77   3 2.77   4 2.77   2 2.77   3 2.77   2 2.77   4 2.77   2 2.77
                             3 2.77   4 2.77   3 2.77   4 2.77
   2  0.500  0.000  0.500-   1 2.77   3 2.77   4 2.77   1 2.77   4 2.77   1 2.77   3 2.77   1 2.77
                             3 2.77   4 2.77   4 2.77   3 2.77
   3  0.000  0.500  0.500-   1 2.77   2 2.77   4 2.77   1 2.77   4 2.77   2 2.77   4 2.77   4 2.77
                             1 2.77   2 2.77   1 2.77   2 2.77
   4  0.000  0.000  0.000-   1 2.77   2 2.77   3 2.77   2 2.77   3 2.77   1 2.77   3 2.77   3 2.77
                             1 2.77   2 2.77   2 2.77   1 2.77

  LATTYP: Found a simple cubic cell.
 ALAT       =     3.9186592329

  Lattice vectors:

 A1 = (   3.9186592329,   0.0000000000,   0.0000000000)
 A2 = (   0.0000000000,   3.9186592329,   0.0000000000)
 A3 = (   0.0000000000,   0.0000000000,   3.9186592329)
 Subroutine PRICEL returns following result:

  LATTYP: Found a face centered cubic cell.
 ALAT       =     3.9186592329

  Lattice vectors:

 A1 = (   1.9593296165,   1.9593296165,   0.0000000000)
 A2 = (   1.9593296165,   0.0000000000,  -1.9593296165)
 A3 = (   0.0000000000,   1.9593296165,  -1.9593296165)

   4 primitive cells build up your supercell.

Analysis of symmetry for initial positions (statically):

 Routine SETGRP: Setting up the symmetry group for a
 simple cubic supercell.

 Subroutine GETGRP returns: Found 48 space group operations
 (whereof 48 operations were pure point group operations)
 out of a pool of 48 trial point group operations.

The static configuration has the point symmetry O_h .

Analysis of symmetry for dynamics (positions and initial velocities):

 Subroutine DYNSYM returns: Found 48 space group operations
 (whereof 48 operations were pure point group operations)
 out of a pool of 48 trial space group operations
 (whereof 48 operations were pure point group operations)
 and found also     4 'primitive' translations

The dynamic configuration has the point symmetry O_h .

 KPOINTS: Automatic mesh

Automatic generation of k-mesh.

 Subroutine IBZKPT returns following result:

 Found   1330 irreducible k-points:

 Following reciprocal coordinates:
            Coordinates               Weight
  0.000000  0.000000  0.000000      1.000000
  0.027778  0.000000  0.000000      6.000000
  0.055556  0.000000  0.000000      6.000000
  0.083333  0.000000  0.000000      6.000000
  0.111111  0.000000  0.000000      6.000000
  0.138889  0.000000  0.000000      6.000000
  0.166667  0.000000  0.000000      6.000000
  0.194444  0.000000  0.000000      6.000000
  0.222222  0.000000  0.000000      6.000000
  0.250000  0.000000  0.000000      6.000000
  0.277778  0.000000  0.000000      6.000000
  0.305556  0.000000  0.000000      6.000000
  0.333333  0.000000  0.000000      6.000000
  0.361111  0.000000  0.000000      6.000000
  0.388889  0.000000  0.000000      6.000000
  0.416667  0.000000  0.000000      6.000000
  0.444444  0.000000  0.000000      6.000000
  0.472222  0.000000  0.000000      6.000000
  0.500000  0.000000  0.000000      3.000000
  0.027778  0.027778  0.000000     12.000000
  0.055556  0.027778  0.000000     24.000000
  0.083333  0.027778  0.000000     24.000000
  0.111111  0.027778  0.000000     24.000000
  0.138889  0.027778  0.000000     24.000000
  0.166667  0.027778  0.000000     24.000000
  0.194444  0.027778  0.000000     24.000000
  0.222222  0.027778  0.000000     24.000000
  0.250000  0.027778  0.000000     24.000000
  0.277778  0.027778  0.000000     24.000000
  0.305556  0.027778  0.000000     24.000000
  0.333333  0.027778  0.000000     24.000000
  0.361111  0.027778  0.000000     24.000000
  0.388889  0.027778  0.000000     24.000000
  0.416667  0.027778  0.000000     24.000000
  0.444444  0.027778  0.000000     24.000000
  0.472222  0.027778  0.000000     24.000000
  0.500000  0.027778  0.000000     12.000000
  0.055556  0.055556  0.000000     12.000000
  0.083333  0.055556  0.000000     24.000000
  0.111111  0.055556  0.000000     24.000000
  0.138889  0.055556  0.000000     24.000000
  0.166667  0.055556  0.000000     24.000000
  0.194444  0.055556  0.000000     24.000000
  0.222222  0.055556  0.000000     24.000000
  0.250000  0.055556  0.000000     24.000000
  0.277778  0.055556  0.000000     24.000000
  0.305556  0.055556  0.000000     24.000000
  0.333333  0.055556  0.000000     24.000000
  0.361111  0.055556  0.000000     24.000000
  0.388889  0.055556  0.000000     24.000000
  0.416667  0.055556  0.000000     24.000000
  0.444444  0.055556  0.000000     24.000000
  0.472222  0.055556  0.000000     24.000000
  0.500000  0.055556  0.000000     12.000000
  0.083333  0.083333  0.000000     12.000000
  0.111111  0.083333  0.000000     24.000000
  0.138889  0.083333  0.000000     24.000000
  0.166667  0.083333  0.000000     24.000000
  0.194444  0.083333  0.000000     24.000000
  0.222222  0.083333  0.000000     24.000000
[...]
  0.472222  0.444444  0.416667     48.000000
  0.500000  0.444444  0.416667     24.000000
  0.472222  0.472222  0.416667     24.000000
  0.500000  0.472222  0.416667     24.000000
  0.500000  0.500000  0.416667      6.000000
  0.444444  0.444444  0.444444      8.000000
  0.472222  0.444444  0.444444     24.000000
  0.500000  0.444444  0.444444     12.000000
  0.472222  0.472222  0.444444     24.000000
  0.500000  0.472222  0.444444     24.000000
  0.500000  0.500000  0.444444      6.000000
  0.472222  0.472222  0.472222      8.000000
  0.500000  0.472222  0.472222     12.000000
  0.500000  0.500000  0.472222      6.000000
  0.500000  0.500000  0.500000      1.000000

 Following cartesian coordinates:
            Coordinates               Weight
  0.000000  0.000000  0.000000      1.000000
  0.006876  0.000000  0.000000      6.000000
  0.013752  0.000000  0.000000      6.000000
  0.020628  0.000000  0.000000      6.000000
  0.027504  0.000000  0.000000      6.000000
  0.034380  0.000000  0.000000      6.000000
  0.041256  0.000000  0.000000      6.000000
  0.048132  0.000000  0.000000      6.000000
  0.055007  0.000000  0.000000      6.000000
  0.061883  0.000000  0.000000      6.000000
  0.068759  0.000000  0.000000      6.000000
  0.075635  0.000000  0.000000      6.000000
  0.082511  0.000000  0.000000      6.000000
  0.089387  0.000000  0.000000      6.000000
  0.096263  0.000000  0.000000      6.000000
  0.103139  0.000000  0.000000      6.000000
  0.110015  0.000000  0.000000      6.000000
  0.116891  0.000000  0.000000      6.000000
  0.123767  0.000000  0.000000      3.000000
  0.006876  0.006876  0.000000     12.000000
  0.013752  0.006876  0.000000     24.000000
  0.020628  0.006876  0.000000     24.000000
  0.027504  0.006876  0.000000     24.000000
  0.034380  0.006876  0.000000     24.000000
  0.041256  0.006876  0.000000     24.000000
  0.048132  0.006876  0.000000     24.000000
  0.055007  0.006876  0.000000     24.000000
  0.061883  0.006876  0.000000     24.000000
  0.068759  0.006876  0.000000     24.000000
  0.075635  0.006876  0.000000     24.000000
  0.082511  0.006876  0.000000     24.000000
  0.089387  0.006876  0.000000     24.000000
  0.096263  0.006876  0.000000     24.000000
  0.103139  0.006876  0.000000     24.000000
  0.110015  0.006876  0.000000     24.000000
  0.116891  0.006876  0.000000     24.000000
  0.123767  0.006876  0.000000     12.000000
  0.013752  0.013752  0.000000     12.000000
  0.020628  0.013752  0.000000     24.000000
  0.027504  0.013752  0.000000     24.000000
  0.034380  0.013752  0.000000     24.000000
  0.041256  0.013752  0.000000     24.000000
  0.048132  0.013752  0.000000     24.000000
  0.055007  0.013752  0.000000     24.000000
  0.061883  0.013752  0.000000     24.000000
  0.068759  0.013752  0.000000     24.000000
  0.075635  0.013752  0.000000     24.000000
  0.082511  0.013752  0.000000     24.000000
  0.089387  0.013752  0.000000     24.000000
  0.096263  0.013752  0.000000     24.000000
  0.103139  0.013752  0.000000     24.000000
  0.110015  0.013752  0.000000     24.000000
  0.116891  0.013752  0.000000     24.000000
  0.123767  0.013752  0.000000     12.000000
  0.020628  0.020628  0.000000     12.000000
  0.027504  0.020628  0.000000     24.000000
  0.034380  0.020628  0.000000     24.000000
  0.041256  0.020628  0.000000     24.000000
  0.048132  0.020628  0.000000     24.000000
  0.055007  0.020628  0.000000     24.000000
[...]
  0.116891  0.110015  0.103139     48.000000
  0.123767  0.110015  0.103139     24.000000
  0.116891  0.116891  0.103139     24.000000
  0.123767  0.116891  0.103139     24.000000
  0.123767  0.123767  0.103139      6.000000
  0.110015  0.110015  0.110015      8.000000
  0.116891  0.110015  0.110015     24.000000
  0.123767  0.110015  0.110015     12.000000
  0.116891  0.116891  0.110015     24.000000
  0.123767  0.116891  0.110015     24.000000
  0.123767  0.123767  0.110015      6.000000
  0.116891  0.116891  0.116891      8.000000
  0.123767  0.116891  0.116891     12.000000
  0.123767  0.123767  0.116891      6.000000
  0.123767  0.123767  0.123767      1.000000

 I would recommend the setting:
   dimension x,y,z NGX =    40 NGY =   40 NGZ =   40
 SYSTEM =  unknown system
 POSCAR =  Al

 Startparameter for this run:
   NWRITE =      2    write-flag & timer
   PREC   = accura    medium, high low
   ISTART =      0    job   : 0-new  1-cont  2-samecut
   ICHARG =      2    charge: 1-file 2-atom 10-const
   ISPIN  =      1    spin polarized calculation?
   LNONCOLLINEAR =      F non collinear calculations
   LSORBIT =      F    spin-orbit coupling
   INIWAV =      1    electr: 0-lowe 1-rand  2-diag
   LASPH  =      F    aspherical Exc in radial PAW
   METAGGA=      F    non-selfconsistent MetaGGA calc.

 Electronic Relaxation 1
   ENCUT  = 1000.0 eV  73.50 Ry    8.57 a.u.  10.10 10.10 10.10*2*pi/ulx,y,z
   ENINI  = 1000.0     initial cutoff
   ENAUG  =  291.1 eV  augmentation charge cutoff
   NELM   =     60;   NELMIN=  2; NELMDL=  0     # of ELM steps
   EDIFF  = 0.1E-07   stopping-criterion for ELM
   LREAL  =      F    real-space projection
   LCOMPAT=      F    compatible to vasp.4.4
   LREAL_COMPAT= F    compatible to vasp.4.5.1-3
   GGA_COMPAT  = T    GGA compatible to vasp.4.4-vasp.4.6
   LMAXPAW     = -100 max onsite density
   LMAXMIX     =    2 max onsite mixed and CHGCAR
   VOSKOWN=      0    Vosko Wilk Nusair interpolation
   ROPT   =    0.00000
 Ionic relaxation
   EDIFFG = 0.1E-06   stopping-criterion for IOM
[...]
 k-point  2 :  0.02780.00000.0000  plane waves:   4369
 k-point  3 :  0.05560.00000.0000  plane waves:   4357
 k-point  4 :  0.08330.00000.0000  plane waves:   4333
 k-point  5 :  0.11110.00000.0000  plane waves:   4320
 k-point  6 :  0.13890.00000.0000  plane waves:   4308
 k-point  7 :  0.16670.00000.0000  plane waves:   4324
 k-point  8 :  0.19440.00000.0000  plane waves:   4324
 k-point  9 :  0.22220.00000.0000  plane waves:   4324
 k-point 10 :  0.25000.00000.0000  plane waves:   4316
 k-point 11 :  0.27780.00000.0000  plane waves:   4308
 k-point 12 :  0.30560.00000.0000  plane waves:   4304
 k-point 13 :  0.33330.00000.0000  plane waves:   4304
 k-point 14 :  0.36110.00000.0000  plane waves:   4316
 k-point 15 :  0.38890.00000.0000  plane waves:   4320
 k-point 16 :  0.41670.00000.0000  plane waves:   4316
 k-point 17 :  0.44440.00000.0000  plane waves:   4316
 k-point 18 :  0.47220.00000.0000  plane waves:   4312
 k-point 19 :  0.50000.00000.0000  plane waves:   4292
 k-point 20 :  0.02780.02780.0000  plane waves:   4365
 k-point 21 :  0.05560.02780.0000  plane waves:   4350
 k-point 22 :  0.08330.02780.0000  plane waves:   4333
 k-point 23 :  0.11110.02780.0000  plane waves:   4321
 k-point 24 :  0.13890.02780.0000  plane waves:   4316
 k-point 25 :  0.16670.02780.0000  plane waves:   4323
 k-point 26 :  0.19440.02780.0000  plane waves:   4315
 k-point 27 :  0.22220.02780.0000  plane waves:   4315
 k-point 28 :  0.25000.02780.0000  plane waves:   4307
 k-point 29 :  0.27780.02780.0000  plane waves:   4307
 k-point 30 :  0.30560.02780.0000  plane waves:   4302
 k-point 31 :  0.33330.02780.0000  plane waves:   4305
 k-point 32 :  0.36110.02780.0000  plane waves:   4310
 k-point 33 :  0.38890.02780.0000  plane waves:   4303
 k-point 34 :  0.41670.02780.0000  plane waves:   4313
 k-point 35 :  0.44440.02780.0000  plane waves:   4315
 k-point 36 :  0.47220.02780.0000  plane waves:   4318
 k-point 37 :  0.50000.02780.0000  plane waves:   4318
 k-point 38 :  0.05560.05560.0000  plane waves:   4335
 k-point 39 :  0.08330.05560.0000  plane waves:   4326
 k-point 40 :  0.11110.05560.0000  plane waves:   4317
 k-point 41 :  0.13890.05560.0000  plane waves:   4315
 k-point 42 :  0.16670.05560.0000  plane waves:   4317
 k-point 43 :  0.19440.05560.0000  plane waves:   4313
 k-point 44 :  0.22220.05560.0000  plane waves:   4314
 k-point 45 :  0.25000.05560.0000  plane waves:   4306
 k-point 46 :  0.27780.05560.0000  plane waves:   4306
 k-point 47 :  0.30560.05560.0000  plane waves:   4306
 k-point 48 :  0.33330.05560.0000  plane waves:   4308
 k-point 49 :  0.36110.05560.0000  plane waves:   4308
 k-point 50 :  0.38890.05560.0000  plane waves:   4307
 k-point 51 :  0.41670.05560.0000  plane waves:   4317
 k-point 52 :  0.44440.05560.0000  plane waves:   4317
 k-point 53 :  0.47220.05560.0000  plane waves:   4311
 k-point 54 :  0.50000.05560.0000  plane waves:   4308
 k-point 55 :  0.08330.08330.0000  plane waves:   4321
 k-point 56 :  0.11110.08330.0000  plane waves:   4316
 k-point 57 :  0.13890.08330.0000  plane waves:   4317
 k-point 58 :  0.16670.08330.0000  plane waves:   4321
 k-point 59 :  0.19440.08330.0000  plane waves:   4319
 k-point 60 :  0.22220.08330.0000  plane waves:   4308
[...]
 k-point 85 :  0.50000.11110.0000  plane waves:   4318
 k-point 86 :  0.13890.13890.0000  plane waves:   4323
 k-point 87 :  0.16670.13890.0000  plane waves:   4318
 k-point 88 :  0.19440.13890.0000  plane waves:   4316
 k-point 89 :  0.22220.13890.0000  plane waves:   4314
 k-point 90 :  0.25000.13890.0000  plane waves:   4313
 k-point 91 :  0.27780.13890.0000  plane waves:   4317
 k-point 92 :  0.30560.13890.0000  plane waves:   4312
 k-point 93 :  0.33330.13890.0000  plane waves:   4306
 k-point 94 :  0.36110.13890.0000  plane waves:   4304
 k-point 95 :  0.38890.13890.0000  plane waves:   4312
 k-point 96 :  0.41670.13890.0000  plane waves:   4321
 k-point 97 :  0.44440.13890.0000  plane waves:   4316
 k-point 98 :  0.47220.13890.0000  plane waves:   4306
 k-point 99 :  0.50000.13890.0000  plane waves:   4302
 k-point ** :  0.16670.16670.0000  plane waves:   4334
 k-point ** :  0.19440.16670.0000  plane waves:   4322
 k-point ** :  0.22220.16670.0000  plane waves:   4319
 k-point ** :  0.25000.16670.0000  plane waves:   4315
 k-point ** :  0.27780.16670.0000  plane waves:   4309
 k-point ** :  0.30560.16670.0000  plane waves:   4308
 k-point ** :  0.33330.16670.0000  plane waves:   4302
 k-point ** :  0.36110.16670.0000  plane waves:   4309
 k-point ** :  0.38890.16670.0000  plane waves:   4310
 k-point ** :  0.41670.16670.0000  plane waves:   4311
 k-point ** :  0.44440.16670.0000  plane waves:   4308
 k-point ** :  0.47220.16670.0000  plane waves:   4310
 k-point ** :  0.50000.16670.0000  plane waves:   4306
 k-point ** :  0.19440.19440.0000  plane waves:   4326
 k-point ** :  0.22220.19440.0000  plane waves:   4320
 k-point ** :  0.25000.19440.0000  plane waves:   4306
 k-point ** :  0.27780.19440.0000  plane waves:   4303
 k-point ** :  0.30560.19440.0000  plane waves:   4306
 k-point ** :  0.33330.19440.0000  plane waves:   4308
 k-point ** :  0.36110.19440.0000  plane waves:   4310
 k-point ** :  0.38890.19440.0000  plane waves:   4312
 k-point ** :  0.41670.19440.0000  plane waves:   4312
 k-point ** :  0.44440.19440.0000  plane waves:   4311
 k-point ** :  0.47220.19440.0000  plane waves:   4314
 k-point ** :  0.50000.19440.0000  plane waves:   4310
 k-point ** :  0.22220.22220.0000  plane waves:   4312
 k-point ** :  0.25000.22220.0000  plane waves:   4304
 k-point ** :  0.27780.22220.0000  plane waves:   4304
 k-point ** :  0.30560.22220.0000  plane waves:   4310
 k-point ** :  0.33330.22220.0000  plane waves:   4314
 k-point ** :  0.36110.22220.0000  plane waves:   4321
 k-point ** :  0.38890.22220.0000  plane waves:   4316
 k-point ** :  0.41670.22220.0000  plane waves:   4318
 k-point ** :  0.44440.22220.0000  plane waves:   4319
 k-point ** :  0.47220.22220.0000  plane waves:   4319
 k-point ** :  0.50000.22220.0000  plane waves:   4324
 k-point ** :  0.25000.25000.0000  plane waves:   4278
 k-point ** :  0.27780.25000.0000  plane waves:   4313
 k-point ** :  0.30560.25000.0000  plane waves:   4309
 k-point ** :  0.33330.25000.0000  plane waves:   4322
 k-point ** :  0.36110.25000.0000  plane waves:   4331
 k-point ** :  0.38890.25000.0000  plane waves:   4329
 k-point ** :  0.41670.25000.0000  plane waves:   4329
 k-point ** :  0.44440.25000.0000  plane waves:   4330
 k-point ** :  0.47220.25000.0000  plane waves:   4328
 k-point ** :  0.50000.25000.0000  plane waves:   4326
 k-point ** :  0.27780.27780.0000  plane waves:   4298
 k-point ** :  0.30560.27780.0000  plane waves:   4304
 k-point ** :  0.33330.27780.0000  plane waves:   4315
 k-point ** :  0.36110.27780.0000  plane waves:   4319
 k-point ** :  0.38890.27780.0000  plane waves:   4326
 k-point ** :  0.41670.27780.0000  plane waves:   4321
 k-point ** :  0.44440.27780.0000  plane waves:   4322
 k-point ** :  0.47220.27780.0000  plane waves:   4327
 k-point ** :  0.50000.27780.0000  plane waves:   4328
 k-point ** :  0.30560.30560.0000  plane waves:   4298
 k-point ** :  0.33330.30560.0000  plane waves:   4310
 k-point ** :  0.36110.30560.0000  plane waves:   4313
 k-point ** :  0.38890.30560.0000  plane waves:   4327
 k-point ** :  0.41670.30560.0000  plane waves:   4321
[...]
 k-point ** :  0.47220.44440.4167  plane waves:   4312
 k-point ** :  0.50000.44440.4167  plane waves:   4314
 k-point ** :  0.47220.47220.4167  plane waves:   4311
 k-point ** :  0.50000.47220.4167  plane waves:   4306
 k-point ** :  0.50000.50000.4167  plane waves:   4312
 k-point ** :  0.44440.44440.4444  plane waves:   4308
 k-point ** :  0.47220.44440.4444  plane waves:   4311
 k-point ** :  0.50000.44440.4444  plane waves:   4314
 k-point ** :  0.47220.47220.4444  plane waves:   4317
 k-point ** :  0.50000.47220.4444  plane waves:   4302
 k-point ** :  0.50000.50000.4444  plane waves:   4296
 k-point ** :  0.47220.47220.4722  plane waves:   4302
 k-point ** :  0.50000.47220.4722  plane waves:   4288
 k-point ** :  0.50000.50000.4722  plane waves:   4272
 k-point ** :  0.50000.50000.5000  plane waves:   4272

 maximum and minimum number of plane-waves per node :   4385  4272

 maximum number of plane-waves:   4385
 maximal index in each direction:
   IXMAX= 10   IYMAX= 10   IZMAX= 10
   IXMIN=-10   IYMIN=-10   IZMIN=-10

 WARNING: wrap around error must be expected set NGX to  42
 WARNING: wrap around error must be expected set NGY to  42
 WARNING: wrap around error must be expected set NGZ to  42

 parallel 3dFFT wavefunction:
    minimum data exchange during FFTs selected (reduces bandwidth)
 parallel 3dFFT charge:
    minimum data exchange during FFTs selected (reduces bandwidth)

Broyden mixing: mesh for mixing (old mesh)
   NGX = 21   NGY = 21   NGZ = 21
  (NGX  = 80   NGY  = 80   NGZ  = 80)
 gives a total of   9261 points
 initial charge density was supplied:
 charge density of overlapping atoms calculated
 number of electron   12.0000000 magnetization
 keeping initial charge density in first step

 Maximum index for augmentation-charges        40307 (set IRDMAX)

 First call to EWALD:  gamma=   0.452
 Maximum number of real-space cells 3x 3x 3
 Maximum number of reciprocal cells 3x 3x 3

----------------------------------------- Iteration    1(   1)  ---------------------------------------

 eigenvalue-minimisations  : 42560
 total energy-change (2. order) : 0.1635870E+02  (-0.6361919E+03)
 number of electron   12.0000000 magnetization
 augmentation part    12.0000000 magnetization

 Free energy of the ion-electron system (eV)
  alpha Z        PSCENC =        -0.89308580
  Ewald energy   TEWEN  =      -303.26155631
  -1/2 Hartree   DENC   =        -0.30091134
  -V(xc)+E(xc)   XCENC  =      -104.28239316
  PAW double counting   =       142.21701965      -14.39593217
  entropy T*S    EENTRO =        -0.00004709
  eigenvalues    EBANDS =        83.12098563
  atomic energy  EATOM  =       214.15461818
  free energy    TOTEN  =        16.35869761 eV

  energy without entropy =       16.35874470  energy(sigma->0) =       16.35872115

[...]

 eigenvalue-minimisations  : 55304
 total energy-change (2. order) :-0.3029470E+02  (-0.2846314E+02)
 number of electron   12.0000000 magnetization
 augmentation part    12.0000000 magnetization

[...]

 Broyden mixing:
  rms(total) = 0.19523E+00    rms(broyden)= 0.19523E+00
  rms(prec ) = 0.44764E+00
  weight for this iteration     100.00

[...]

 eigenvalues of (default mixing * dielectric matrix)
  average eigenvalue GAMMA=   2.6362
  2.6362

[...]

 eigenvalue-minimisations  : 39864
 total energy-change (2. order) : 0.1269886E-06  (-0.1291742E-09)
 number of electron   12.0000000 magnetization
 augmentation part    -0.1475843 magnetization

 Broyden mixing:
  rms(total) = 0.26475E-05    rms(broyden)= 0.26475E-05
  rms(prec ) = 0.34265E-05
  weight for this iteration     100.00

 eigenvalues of (default mixing * dielectric matrix)
  average eigenvalue GAMMA=   1.9988
  0.9946  0.9946  2.6896  2.6896  2.5146  2.1097

[...]

----------------------------------------- Iteration    1(  12)  ---------------------------------------

 eigenvalue-minimisations  : 33000
 total energy-change (2. order) :-0.9123198E-08  (-0.1231533E-10)
 number of electron   12.0000000 magnetization
 augmentation part    -0.1475843 magnetization

 Free energy of the ion-electron system (eV)
  alpha Z        PSCENC =        -0.89308580
  Ewald energy   TEWEN  =      -303.26155631
  -1/2 Hartree   DENC   =        -0.49688205
  -V(xc)+E(xc)   XCENC  =      -103.76042332
  PAW double counting   =       143.97205797      -16.26981212
  entropy T*S    EENTRO =        -0.00008016
  eigenvalues    EBANDS =        51.71782588
  atomic energy  EATOM  =       214.15461818
  free energy    TOTEN  =       -14.83733771 eV

  energy without entropy =      -14.83725755  energy(sigma->0) =      -14.83729763

 average (electrostatic) potential at core
  the test charge radii are     1.0406
  (the norm of the test charge is              1.0000)
       1 -71.4955       2 -71.4955       3 -71.4955       4 -71.4955

 E-fermi :   9.0110     XC(G=0): -10.5357     alpha+bet :-16.3165
   add alpha+bet to get absolut eigen values

 k-point   1 :       0.0000    0.0000    0.0000
  band No.  band energies     occupation
      1      -2.7900      2.00000
      2       5.8514      2.00000
      3       5.8514      2.00000
      4       5.8514      2.00000
      5       7.3659      2.00000
      6       7.3659      2.00000
      7       7.3659      2.00000
      8      14.2756      0.00000
      9      14.2756      0.00000
     10      14.2756      0.00000
     11      15.0452      0.00000
     12      15.0452      0.00000
     13      15.0452      0.00000
     14      15.0452      0.00000
     15      15.0452      0.00000
     16      15.0452      0.00000

[...]

 k-point *** :       0.5000    0.5000    0.5000
  band No.  band energies     occupation
      1       4.0308      2.00000
      2       4.0308      2.00000
      3       4.0308      2.00000
      4       4.0308      2.00000
      5       4.4898      2.00000
      6       4.4898      2.00000
      7       4.4898      2.00000
      8       4.4898      2.00000
      9      20.8957      0.00000
     10      20.8957      0.00000
     11      20.8957      0.00000
     12      20.8957      0.00000
     13      20.8957      0.00000
     14      20.8957      0.00000
     15      20.8957      0.00000
     16      20.8957      0.00000

 soft charge-density along one line, spin component           1
         0         1         2         3         4         5         6         7         8         9
 total charge-density along one line

------------------------ aborting loop because EDIFF is reached ----------------------------------------

  FREE ENERGIE OF THE ION-ELECTRON SYSTEM (eV)
  free  energy   TOTEN  =       -14.837338 eV

  energy  without entropy=      -14.837258  energy(sigma->0) =      -14.837298

  FORCE on cell =-STRESS in cart. coord.  units (eV/reduce length):
  Direction    X        Y        Z        XY       YZ       ZX
  Alpha Z     -0.89     -0.89     -0.89
  Ewald     -101.09   -101.09   -101.09     -0.00      0.00      0.00
  Hartree      0.17      0.17      0.17     -0.00     -0.00     -0.00
  E(xc)      -35.31    -35.31    -35.31      0.00      0.00     -0.00
  Local        2.92      2.92      2.92     -0.00      0.00     -0.00
  n-local     76.05     77.09     79.67      0.55      1.46      0.63
  augment     -3.93     -3.93     -3.93      0.00      0.00      0.00
  Kinetic     61.00     63.02     67.42      1.64     -8.84     -1.74
  Total        3.29      3.29      3.29      0.00      0.00     -0.00
  in kB       87.51     87.51     87.51      0.00      0.00     -0.00

 VOLUME and BASIS-vectors are now :
  energy-cutoff  :     1000.00
  volume of cell :       60.17
      direct lattice vectors                 reciprocal lattice vectors
     3.918659233  0.000000000  0.000000000     0.255189324  0.000000000  0.000000000
     0.000000000  3.918659233  0.000000000     0.000000000  0.255189324  0.000000000
     0.000000000  0.000000000  3.918659233     0.000000000  0.000000000  0.255189324

  length of vectors
     3.918659233  3.918659233  3.918659233     0.255189324  0.255189324  0.255189324

 FORCES acting on ions
    electron-ion (+dipol)            ewald-force                    non-local-force                 convergence-correction
   -.269E-14 -.533E-13 0.404E-13   0.156E-14 0.856E-15 -.290E-15   -.518E-26 -.560E-26 0.771E-27   0.118E-14 -.364E-15 0.229E-15
   -.271E-14 -.137E-14 -.232E-13   0.153E-14 -.416E-15 0.297E-15   -.962E-27 -.264E-26 -.215E-26   0.116E-14 0.359E-15 -.234E-15
   -.199E-14 -.140E-14 -.171E-14   -.145E-14 0.546E-15 0.311E-15   0.416E-26 -.381E-26 0.442E-26   -.125E-14 -.388E-15 -.234E-15
   -.242E-14 -.129E-14 -.937E-15   -.148E-14 -.726E-15 -.528E-15   0.388E-26 -.826E-28 0.116E-26   -.123E-14 0.382E-15 0.226E-15
   -.980E-14 -.574E-13 0.145E-13   0.169E-15 0.260E-15 -.211E-15   0.189E-26 -.121E-25 0.420E-26   -.146E-15 -.100E-16 -.129E-16

 POSITION                                       TOTAL-FORCE (eV/Angst)
      1.95933      1.95933      0.00000        -0.000000      0.000000     -0.000000
      1.95933      0.00000      1.95933        -0.000000      0.000000     -0.000000
      0.00000      1.95933      1.95933        -0.000000      0.000000      0.000000
      0.00000      0.00000      0.00000         0.000000     -0.000000      0.000000
    total drift:                               -0.000000     -0.000000      0.000000

 mean value of Nose-termostat <S>:     1.000 mean value of <T> :     0.000
 mean temperature <T/S>/<1/S>  :     0.000