 vasp.4.6.28 25Jul05 complex
 executed on             LinuxIFC date 2017.01.25  10:49:40

 INCAR:
 POTCAR:   PAW_PBE Ag 06Sep2000
 POTCAR:   PAW_PBE Ag 06Sep2000
   VRHFIN =Ag : s1 d10

   TITEL  = PAW_PBE Ag 06Sep2000
   POMASS =  107.868; ZVAL   =   11.000    mass and valenz
   ENMAX  =  249.846; ENMIN  =  187.385 eV
   QCUT   =   -4.285; QGAM   =    8.570    optimization parameters

   Description
     l     E      TYP  RCUT    TYP  RCUT
     2   .000     23  2.400
     2   .000     23  2.400
     0   .000     23  2.400
     0   .000     23  2.400
     1  -.200     23  2.400
     1  1.500     23  2.400
     3   .000      7   .000

 PAW_PBE Ag 06Sep2000                   :

 POSCAR: No title
  positions in direct lattice

 ion  position               nearest neighbor table
   1  0.750  0.750  0.500-   3 3.10  20 3.10  14 3.10  19 3.10   5 3.10  26 3.10  11 3.10   6 3.10
                            18 3.10  29 3.10  10 3.10   8 3.10
   2  0.750  0.750  0.000-   8 3.10  10 3.10  11 3.10  18 3.10  22 3.10  27 3.10  26 3.10   5 3.10
                            32 3.10   3 3.10  20 3.10  12 3.12
   3  0.750  0.000  0.250-   1 3.10   9 3.10   5 3.10  19 3.10  28 3.10  18 3.10   6 3.10  27 3.10
                            13 3.10   2 3.10   4 3.10  12 3.12
   4  0.750  0.250  0.500-   8 3.10  10 3.10   6 3.10  13 3.10  29 3.10  31 3.10  21 3.10  28 3.10
                            14 3.10  19 3.10   3 3.10  20 3.10
   5  0.000  0.750  0.250-  14 3.10   3 3.10   1 3.10  15 3.10  25 3.10   2 3.10   7 3.10  16 3.10
                            10 3.10  22 3.10   6 3.10  12 3.10
   6  0.000  0.000  0.500-  11 3.10  13 3.10   8 3.10   4 3.10   7 3.10  16 3.10   1 3.10   3 3.10
                            17 3.10  23 3.10  21 3.10   5 3.10
   7  0.250  0.750  0.500-  16 3.10  30 3.10   6 3.10  18 3.10  29 3.10  11 3.10  19 3.10  26 3.10
                             5 3.10  14 3.10  25 3.10  23 3.10
   8  0.750  0.000  0.750-   2 3.10   4 3.10   6 3.10  11 3.10  27 3.10  31 3.10  26 3.10  19 3.10
                            21 3.10   1 3.10   9 3.10  12 3.12
   9  0.750  0.250  0.000-   3 3.10  20 3.10  21 3.10  28 3.10  32 3.10  27 3.10  13 3.10  31 3.10
                            22 3.10   8 3.10  10 3.10  12 3.12
  10  0.750  0.500  0.250-   2 3.10   4 3.10  13 3.10  18 3.10  22 3.10  29 3.10  14 3.10  28 3.10
                             5 3.10  32 3.10   9 3.10   1 3.10
  11  0.000  0.750  0.750-   6 3.10  22 3.10   7 3.10   8 3.10   2 3.10  30 3.10  20 3.10   1 3.10
                            23 3.10  15 3.10  14 3.10  12 3.10
  12  0.002  0.000  0.000-  15 3.09  23 3.09  16 3.09  24 3.09   5 3.10  21 3.10  13 3.10  11 3.10
                             9 3.12   3 3.12   2 3.12   8 3.12
  13  0.000  0.250  0.250-   6 3.10  22 3.10  10 3.10  16 3.10   4 3.10  24 3.10  17 3.10   3 3.10
                             9 3.10  25 3.10  14 3.10  12 3.10
  14  0.000  0.500  0.500-   5 3.10  21 3.10  17 3.10  20 3.10   1 3.10  25 3.10   7 3.10  10 3.10
                             4 3.10  30 3.10  13 3.10  11 3.10
  15  0.250  0.750  0.000-  12 3.09  23 3.10  25 3.10   5 3.10  26 3.10  32 3.10  18 3.10  22 3.10
                            27 3.10  11 3.10  30 3.10  16 3.10
  16  0.250  0.000  0.250-  12 3.09   7 3.10  24 3.10  13 3.10  18 3.10   6 3.10  27 3.10   5 3.10
                            19 3.10  28 3.10  17 3.10  15 3.10
  17  0.250  0.250  0.500-  23 3.10  25 3.10  21 3.10  14 3.10  19 3.10  28 3.10   6 3.10  13 3.10
                            29 3.10  31 3.10  30 3.10  16 3.10
  18  0.500  0.750  0.250-  27 3.10  29 3.10  10 3.10  16 3.10   2 3.10   7 3.10   1 3.10  25 3.10
                             3 3.10  15 3.10  19 3.10  32 3.10
  19  0.500  0.000  0.500-  26 3.10  28 3.10  17 3.10  23 3.10   1 3.10   3 3.10   4 3.10   7 3.10
                             8 3.10  16 3.10  18 3.10  31 3.10
  20  0.750  0.500  0.750-   1 3.10   9 3.10  14 3.10  21 3.10  26 3.10  32 3.10  11 3.10  29 3.10
                            31 3.10  22 3.10   4 3.10   2 3.10
  21  0.000  0.250  0.750-  14 3.10   9 3.10  17 3.10  20 3.10  23 3.10   8 3.10   4 3.10  24 3.10
                            30 3.10  22 3.10   6 3.10  12 3.10
  22  0.000  0.500  0.000-  11 3.10  13 3.10   2 3.10  10 3.10  24 3.10  30 3.10  20 3.10   9 3.10
                            25 3.10  15 3.10  21 3.10   5 3.10
  23  0.250  0.000  0.750-  12 3.09  15 3.10  17 3.10  19 3.10  21 3.10  26 3.10   6 3.10  11 3.10
                            27 3.10  31 3.10  24 3.10   7 3.10
  24  0.250  0.250  0.000-  12 3.09  16 3.10  30 3.10  22 3.10  27 3.10  13 3.10  31 3.10  21 3.10
                            28 3.10  32 3.10  25 3.10  23 3.10
  25  0.250  0.500  0.250-  15 3.10  17 3.10   5 3.10  14 3.10  28 3.10  32 3.10  22 3.10  13 3.10
                            29 3.10  18 3.10  24 3.10   7 3.10
  26  0.500  0.750  0.750-  19 3.10  32 3.10   1 3.10  20 3.10  23 3.10  15 3.10   8 3.10   2 3.10
                            30 3.10   7 3.10  27 3.10  29 3.10
  27  0.500  0.000  0.000-  18 3.10  31 3.10  16 3.10   2 3.10  24 3.10   8 3.10   9 3.10  23 3.10
                            15 3.10   3 3.10  28 3.10  26 3.10
  28  0.500  0.250  0.250-  19 3.10  32 3.10  17 3.10   3 3.10  25 3.10   9 3.10  10 3.10  24 3.10
                            16 3.10   4 3.10  29 3.10  27 3.10
  29  0.500  0.500  0.500-  18 3.10  31 3.10  10 3.10   4 3.10  30 3.10   7 3.10  20 3.10  25 3.10
                            17 3.10   1 3.10  26 3.10  28 3.10
  30  0.250  0.500  0.750-   7 3.10  24 3.10  22 3.10  11 3.10  29 3.10  31 3.10  26 3.10  14 3.10
                            21 3.10  32 3.10  17 3.10  15 3.10
  31  0.500  0.250  0.750-  27 3.10  29 3.10  24 3.10   4 3.10   8 3.10  30 3.10   9 3.10  17 3.10
                            20 3.10  23 3.10  19 3.10  32 3.10
  32  0.500  0.500  0.000-  26 3.10  28 3.10  20 3.10  25 3.10   9 3.10  15 3.10   2 3.10  10 3.10
                            24 3.10  30 3.10  18 3.10  31 3.10

  LATTYP: Found a simple cubic cell.
 ALAT       =     8.7789371900

  Lattice vectors:

 A1 = (   8.7789371900,   0.0000000000,   0.0000000000)
 A2 = (   0.0000001600,   8.7789371900,   0.0000000000)
 A3 = (   0.0000001600,   0.0000001600,   8.7789371900)
 Subroutine PRICEL returns:
 Original cell was already a primitive cell.

Analysis of symmetry for initial positions (statically):

 Routine SETGRP: Setting up the symmetry group for a
 simple cubic supercell.

 Subroutine GETGRP returns: Found  8 space group operations
 (whereof  8 operations were pure point group operations)
 out of a pool of 48 trial point group operations.

The static configuration has the point symmetry C_4v.

Analysis of symmetry for dynamics (positions and initial velocities):

 Subroutine DYNSYM returns: Found  8 space group operations
 (whereof  8 operations were pure point group operations)
 out of a pool of  8 trial space group operations
 (whereof  8 operations were pure point group operations)
 and found also     1 'primitive' translations

The dynamic configuration has the point symmetry C_4v.

 KPOINTS: Automatic mesh

Automatic generation of k-mesh.

 Subroutine IBZKPT returns following result:

 Found     40 irreducible k-points:

 Following reciprocal coordinates:
            Coordinates               Weight
  0.062500  0.062500  0.062500      8.000000
  0.187500  0.062500  0.062500      8.000000
  0.312500  0.062500  0.062500      8.000000
  0.437500  0.062500  0.062500      8.000000
  0.062500  0.187500  0.062500     16.000000
  0.187500  0.187500  0.062500     16.000000
  0.312500  0.187500  0.062500     16.000000
  0.437500  0.187500  0.062500     16.000000
  0.062500  0.312500  0.062500     16.000000
  0.187500  0.312500  0.062500     16.000000
  0.312500  0.312500  0.062500     16.000000
  0.437500  0.312500  0.062500     16.000000
  0.062500  0.437500  0.062500     16.000000
  0.187500  0.437500  0.062500     16.000000
  0.312500  0.437500  0.062500     16.000000
  0.437500  0.437500  0.062500     16.000000
  0.062500  0.187500  0.187500      8.000000
  0.187500  0.187500  0.187500      8.000000
  0.312500  0.187500  0.187500      8.000000
  0.437500  0.187500  0.187500      8.000000
  0.062500  0.312500  0.187500     16.000000
  0.187500  0.312500  0.187500     16.000000
  0.312500  0.312500  0.187500     16.000000
  0.437500  0.312500  0.187500     16.000000
  0.062500  0.437500  0.187500     16.000000
  0.187500  0.437500  0.187500     16.000000
  0.312500  0.437500  0.187500     16.000000
  0.437500  0.437500  0.187500     16.000000
  0.062500  0.312500  0.312500      8.000000
  0.187500  0.312500  0.312500      8.000000
  0.312500  0.312500  0.312500      8.000000
  0.437500  0.312500  0.312500      8.000000
  0.062500  0.437500  0.312500     16.000000
  0.187500  0.437500  0.312500     16.000000
  0.312500  0.437500  0.312500     16.000000
  0.437500  0.437500  0.312500     16.000000
  0.062500  0.437500  0.437500      8.000000
  0.187500  0.437500  0.437500      8.000000
  0.312500  0.437500  0.437500      8.000000
  0.437500  0.437500  0.437500      8.000000

 Following cartesian coordinates:
            Coordinates               Weight
  0.007119  0.007119  0.007119      8.000000
  0.021358  0.007119  0.007119      8.000000
  0.035597  0.007119  0.007119      8.000000
  0.049835  0.007119  0.007119      8.000000
  0.007119  0.021358  0.007119     16.000000
  0.021358  0.021358  0.007119     16.000000
  0.035597  0.021358  0.007119     16.000000
  0.049835  0.021358  0.007119     16.000000
  0.007119  0.035597  0.007119     16.000000
  0.021358  0.035597  0.007119     16.000000
  0.035597  0.035597  0.007119     16.000000
  0.049835  0.035597  0.007119     16.000000
  0.007119  0.049835  0.007119     16.000000
  0.021358  0.049835  0.007119     16.000000
  0.035597  0.049835  0.007119     16.000000
  0.049835  0.049835  0.007119     16.000000
  0.007119  0.021358  0.021358      8.000000
  0.021358  0.021358  0.021358      8.000000
  0.035597  0.021358  0.021358      8.000000
  0.049835  0.021358  0.021358      8.000000
  0.007119  0.035597  0.021358     16.000000
  0.021358  0.035597  0.021358     16.000000
  0.035597  0.035597  0.021358     16.000000
  0.049835  0.035597  0.021358     16.000000
  0.007119  0.049835  0.021358     16.000000
  0.021358  0.049835  0.021358     16.000000
  0.035597  0.049835  0.021358     16.000000
  0.049835  0.049835  0.021358     16.000000
  0.007119  0.035597  0.035597      8.000000
  0.021358  0.035597  0.035597      8.000000
  0.035597  0.035597  0.035597      8.000000
  0.049835  0.035597  0.035597      8.000000
  0.007119  0.049835  0.035597     16.000000
  0.021358  0.049835  0.035597     16.000000
  0.035597  0.049835  0.035597     16.000000
  0.049835  0.049835  0.035597     16.000000
  0.007119  0.049835  0.049835      8.000000
  0.021358  0.049835  0.049835      8.000000
  0.035597  0.049835  0.049835      8.000000
  0.049835  0.049835  0.049835      8.000000

 I would recommend the setting:
   dimension x,y,z NGX =    70 NGY =   70 NGZ =   70
 SYSTEM =  No title
 POSCAR =  No title

 Startparameter for this run:
   NWRITE =      2    write-flag & timer
[...]

[...]

 eigenvalue-minimisations  : 17868
 total energy-change (2. order) : 0.1233567E+01  (-0.1176489E+01)
 number of electron  352.0000003 magnetization
 augmentation part   169.5374201 magnetization

[...]

 eigenvalues of (default mixing * dielectric matrix)
  average eigenvalue GAMMA=   0.8582
  0.8582

[...]

 Broyden mixing:
  rms(total) = 0.48122E-03    rms(broyden)= 0.48114E-03
  rms(prec ) = 0.72586E-03
  weight for this iteration     100.00

 eigenvalues of (default mixing * dielectric matrix)
  average eigenvalue GAMMA=   1.4977
  2.6233  1.9588  1.5792  0.9738  0.9738  0.8776

[...]

----------------------------------------- Iteration    1(   8)  ---------------------------------------

 eigenvalue-minimisations  : 10281
 total energy-change (2. order) : 0.3308167E-05  (-0.3115002E-06)
 number of electron  352.0000003 magnetization
 augmentation part   169.7778458 magnetization

 Free energy of the ion-electron system (eV)
  alpha Z        PSCENC =      2687.58728278
  Ewald energy   TEWEN  =    -29118.88956108
  -1/2 Hartree   DENC   =     -7230.25391126
  -V(xc)+E(xc)   XCENC  =      -371.68778030
  PAW double counting   =     27514.23096763   -26074.16196738
  entropy T*S    EENTRO =        -0.01446485
  eigenvalues    EBANDS =      -691.16612005
  atomic energy  EATOM  =     33197.16788402
  free energy    TOTEN  =       -87.18767049 eV

  energy without entropy =      -87.17320564  energy(sigma->0) =      -87.18284887

 average (electrostatic) potential at core
  the test charge radii are     1.1249
  (the norm of the test charge is              1.0000)
       1 -42.5044       2 -42.5028       3 -42.5028       4 -42.5044       5 -42.5045
       6 -42.5045       7 -42.5045       8 -42.5028       9 -42.5028      10 -42.5044
      11 -42.5045      12 -42.5046      13 -42.5045      14 -42.5045      15 -42.5062
      16 -42.5062      17 -42.5045      18 -42.5045      19 -42.5045      20 -42.5044
      21 -42.5045      22 -42.5045      23 -42.5062      24 -42.5062      25 -42.5045
      26 -42.5045      27 -42.5045      28 -42.5045      29 -42.5045      30 -42.5045
      31 -42.5045      32 -42.5045

 E-fermi :   1.8693     XC(G=0): -10.9739     alpha+bet : -6.8867
   add alpha+bet to get absolut eigen values

 k-point   1 :       0.0625    0.0625    0.0625
  band No.  band energies     occupation
      1      -4.4759      2.00000
      2      -3.4302      2.00000
      3      -3.4301      2.00000
      4      -3.4301      2.00000
      5      -3.4261      2.00000
      6      -3.4176      2.00000
      7      -3.4176      2.00000
      8      -3.4176      2.00000
      9      -3.3616      2.00000
     10      -3.3615      2.00000
     11      -3.3614      2.00000
     12      -3.0912      2.00000
     13      -3.0896      2.00000
     14      -3.0880      2.00000
     15      -3.0296      2.00000
     16      -3.0284      2.00000
     17      -3.0272      2.00000
     18      -2.9266      2.00000
     19      -2.9256      2.00000
     20      -2.9247      2.00000
     21      -2.9077      2.00000
     22      -2.9055      2.00000
     23      -2.9054      2.00000
     24      -2.9053      2.00000
     25      -2.9053      2.00000
     26      -2.9031      2.00000
     27      -2.8276      2.00000
     28      -2.8266      2.00000
     29      -2.8256      2.00000
     30      -2.7424      2.00000
     31      -2.7413      2.00000
     32      -2.7401      2.00000
     33      -2.7149      2.00000
     34      -2.7140      2.00000
     35      -2.7131      2.00000
     36      -2.7066      2.00000
     37      -2.7059      2.00000
     38      -2.7051      2.00000
     39      -2.7049      2.00000
     40      -2.7042      2.00000
     41      -2.7035      2.00000
     42      -2.5981      2.00000
     43      -2.5980      2.00000
     44      -2.5970      2.00000
     45      -2.5970      2.00000
     46      -2.5960      2.00000
     47      -2.5959      2.00000
     48      -2.5394      2.00000
     49      -2.5380      2.00000
     50      -2.5377      2.00000
     51      -2.5367      2.00000
     52      -2.5365      2.00000
     53      -2.5357      2.00000
     54      -2.5350      2.00000
     55      -2.5348      2.00000
     56      -2.5339      2.00000
     57      -2.4976      2.00000
     58      -2.4966      2.00000
     59      -2.4954      2.00000
     60      -2.3908      2.00000
[...]
    198       7.1070     -0.00000
    199       7.1089     -0.00000
    200       7.1089     -0.00000
    201       7.1108     -0.00000
    202       7.1108     -0.00000
    203       7.1691     -0.00000
    204       7.1694     -0.00000
    205       7.1697     -0.00000
    206       7.8256      0.00000
    207       7.8264      0.00000
    208       7.8268      0.00000
    209       7.8277      0.00000
    210       8.9365      0.00000
    211       9.1124      0.00000
    212       9.2268      0.00000

[...]

 k-point  40 :       0.4375    0.4375    0.4375
  band No.  band energies     occupation
      1      -3.5066      2.00000
      2      -3.3982      2.00000
      3      -3.3967      2.00000
      4      -3.3951      2.00000
      5      -3.3405      2.00000
      6      -3.3392      2.00000
      7      -3.3379      2.00000
      8      -3.3284      2.00000
      9      -3.1362      2.00000
     10      -3.1360      2.00000
     11      -3.1360      2.00000
     12      -3.1066      2.00000
     13      -3.1055      2.00000
     14      -3.1044      2.00000
     15      -3.0929      2.00000
     16      -3.0924      2.00000
     17      -3.0916      2.00000
     18      -3.0914      2.00000
     19      -3.0906      2.00000
     20      -3.0901      2.00000
     21      -3.0807      2.00000
     22      -3.0805      2.00000
     23      -3.0804      2.00000
     24      -3.0785      2.00000
     25      -3.0783      2.00000
     26      -3.0774      2.00000
     27      -3.0774      2.00000
     28      -3.0764      2.00000
     29      -3.0758      2.00000
     30      -3.0732      2.00000
     31      -3.0722      2.00000
     32      -3.0710      2.00000
     33      -2.8176      2.00000
     34      -2.8172      2.00000
     35      -2.8169      2.00000
     36      -2.7318      2.00000
     37      -2.7311      2.00000
     38      -2.7306      2.00000
     39      -2.7181      2.00000
     40      -2.7172      2.00000
     41      -2.7164      2.00000
     42      -2.7163      2.00000
     43      -2.7156      2.00000
     44      -2.7147      2.00000
     45      -2.6413      2.00000
     46      -2.6403      2.00000
     47      -2.6395      2.00000
     48      -2.6395      2.00000
     49      -2.6388      2.00000
     50      -2.6382      2.00000
     51      -2.6342      2.00000
     52      -2.6337      2.00000
     53      -2.6327      2.00000
     54      -2.5754      2.00000
     55      -2.5754      2.00000
     56      -2.5753      2.00000
     57      -2.2450      2.00000
     58      -2.2309      2.00000
     59      -2.2299      2.00000
     60      -2.2288      2.00000
[...]
    198       6.4547     -0.00000
    199       6.8755     -0.00000
    200       6.8760     -0.00000
    201       6.8777     -0.00000
    202       6.8778     -0.00000
    203       6.8798     -0.00000
    204       6.8803     -0.00000
    205       7.2043     -0.00000
    206       7.2054     -0.00000
    207       7.2067     -0.00000
    208       7.2081     -0.00000
    209       7.2127     -0.00000
    210       7.5923      0.00000
    211       7.7289      0.00000
    212       7.9140      0.00000

 soft charge-density along one line, spin component           1
         0         1         2         3         4         5         6         7         8         9
 total charge-density along one line

------------------------ aborting loop because EDIFF is reached ----------------------------------------

  FREE ENERGIE OF THE ION-ELECTRON SYSTEM (eV)
  free  energy   TOTEN  =       -87.187670 eV

  energy  without entropy=      -87.173206  energy(sigma->0) =      -87.182849

  FORCE on cell =-STRESS in cart. coord.  units (eV/reduce length):
  Direction    X        Y        Z        XY       YZ       ZX
  Alpha Z   2687.59   2687.59   2687.59
  Ewald    -9706.42  -9706.30  -9706.30     -0.00     -0.00     -0.00
  Hartree   2410.12   2410.21   2410.21     -0.00     -0.00     -0.00
  E(xc)    -1851.16  -1851.16  -1851.16     -0.00     -0.00     -0.00
  Local     2915.30   2915.08   2915.08      0.00      0.00      0.00
  n-local  -2173.41  -2176.74  -2170.08      1.90      1.05      0.20
  augment   1335.10   1335.09   1335.09     -0.00     -0.00     -0.00
  Kinetic   4345.44   4339.93   4350.96      1.37     -0.18     -1.72
  Total      -37.45    -37.46    -37.46     -0.00     -0.00     -0.00
  in kB      -88.69    -88.70    -88.70     -0.00     -0.00     -0.00

 VOLUME and BASIS-vectors are now :
  energy-cutoff  :      600.00
  volume of cell :      676.59
      direct lattice vectors                 reciprocal lattice vectors
     8.778937190  0.000000000  0.000000000     0.113909005 -0.000000002 -0.000000002
     0.000000160  8.778937190  0.000000000     0.000000000  0.113909005 -0.000000002
     0.000000160  0.000000160  8.778937190     0.000000000  0.000000000  0.113909005

  length of vectors
     8.778937190  8.778937190  8.778937190     0.113909005  0.113909005  0.113909005

 FORCES acting on ions
    electron-ion (+dipol)            ewald-force                    non-local-force                 convergence-correction
   -.270E-01 -.134E+00 0.129E-07   0.296E-01 0.134E+00 -.138E-07   -.176E-02 0.591E-03 0.201E-20   -.324E-03 0.158E-03 -.121E-09
   -.864E+00 -.162E+01 0.719E-08   0.856E+00 0.161E+01 -.283E-09   0.103E-01 0.891E-02 -.388E-20   0.149E-02 0.145E-02 0.134E-09
   -.864E+00 0.277E-07 0.162E+01   0.856E+00 -.291E-07 -.161E+01   0.103E-01 -.162E-09 -.891E-02   0.149E-02 -.158E-09 -.145E-02
   -.270E-01 0.134E+00 -.715E-08   0.296E-01 -.134E+00 0.759E-08   -.176E-02 -.591E-03 0.479E-21   -.324E-03 -.158E-03 0.115E-09
   0.105E+01 -.761E-02 0.761E-02   -.105E+01 0.755E-02 -.755E-02   0.108E-02 0.612E-04 -.612E-04   0.729E-03 0.987E-05 -.987E-05
   0.557E+00 -.197E-08 -.364E-07   -.559E+00 0.150E-08 0.404E-07   0.811E-03 -.339E-19 -.212E-20   0.651E-03 -.314E-09 0.574E-09
   -.221E-01 0.135E+00 -.745E-08   0.247E-01 -.134E+00 0.791E-08   -.178E-02 -.575E-03 0.240E-20   -.302E-03 -.231E-03 0.115E-09
   -.864E+00 -.223E-07 -.162E+01   0.856E+00 0.291E-07 0.161E+01   0.103E-01 0.162E-09 0.891E-02   0.149E-02 0.160E-09 0.145E-02
   -.864E+00 0.162E+01 -.172E-08   0.856E+00 -.161E+01 0.232E-09   0.103E-01 -.891E-02 -.152E-21   0.149E-02 -.145E-02 -.132E-09
   -.270E-01 -.468E-08 0.134E+00   0.296E-01 0.516E-08 -.134E+00   -.176E-02 -.108E-10 -.591E-03   -.324E-03 0.112E-09 -.159E-03
   0.105E+01 -.761E-02 -.761E-02   -.105E+01 0.755E-02 0.755E-02   0.108E-02 0.612E-04 0.612E-04   0.729E-03 0.987E-05 0.987E-05
   0.673E+01 -.107E-06 0.141E-06   -.669E+01 0.116E-06 0.116E-06   -.652E-01 0.548E-20 -.145E-19   -.864E-02 -.629E-09 -.629E-09
   0.105E+01 0.761E-02 0.761E-02   -.105E+01 -.755E-02 -.755E-02   0.108E-02 -.612E-04 -.612E-04   0.729E-03 -.987E-05 -.987E-05
   0.232E+00 -.104E-07 -.104E-07   -.231E+00 0.107E-07 0.107E-07   -.238E-02 0.230E-19 0.126E-19   0.840E-03 0.263E-09 0.263E-09
   -.854E+00 0.164E+01 -.183E-08   0.846E+00 -.164E+01 0.257E-09   0.103E-01 -.905E-02 -.501E-20   0.146E-02 -.143E-02 -.131E-09
   -.854E+00 -.227E-07 -.164E+01   0.846E+00 0.296E-07 0.164E+01   0.103E-01 0.165E-09 0.905E-02   0.146E-02 0.201E-09 0.143E-02
   -.221E-01 -.135E+00 0.127E-07   0.247E-01 0.134E+00 -.135E-07   -.178E-02 0.575E-03 0.352E-20   -.302E-03 0.231E-03 -.160E-09
   -.590E+00 0.224E-02 -.224E-02   0.593E+00 -.226E-02 0.226E-02   -.101E-02 0.400E-04 -.400E-04   -.101E-02 -.246E-04 0.246E-04
   -.446E+00 0.194E-08 0.259E-07   0.439E+00 -.148E-08 -.255E-07   0.612E-02 -.777E-20 -.154E-19   0.114E-03 0.294E-09 -.482E-09
   -.270E-01 0.105E-07 -.134E+00   0.296E-01 -.113E-07 0.134E+00   -.176E-02 0.108E-10 0.591E-03   -.324E-03 -.118E-09 0.159E-03
   0.105E+01 0.761E-02 -.761E-02   -.105E+01 -.755E-02 0.755E-02   0.108E-02 -.612E-04 0.612E-04   0.729E-03 -.987E-05 0.987E-05
   0.557E+00 -.378E-07 -.192E-08   -.559E+00 0.404E-07 0.150E-08   0.811E-03 0.726E-21 0.474E-20   0.650E-03 0.574E-09 -.314E-09
   -.854E+00 0.280E-07 0.164E+01   0.846E+00 -.296E-07 -.164E+01   0.103E-01 -.165E-09 -.905E-02   0.146E-02 -.157E-09 -.143E-02
   -.854E+00 -.164E+01 0.727E-08   0.846E+00 0.164E+01 -.258E-09   0.103E-01 0.905E-02 0.108E-19   0.146E-02 0.143E-02 0.175E-09
   -.221E-01 0.103E-07 -.135E+00   0.247E-01 -.111E-07 0.134E+00   -.178E-02 0.105E-10 0.575E-03   -.302E-03 -.156E-09 0.231E-03
   -.590E+00 0.224E-02 0.224E-02   0.593E+00 -.226E-02 -.226E-02   -.101E-02 0.400E-04 0.400E-04   -.101E-02 -.246E-04 -.246E-04
   -.175E+01 0.391E-08 -.255E-06   0.177E+01 -.199E-08 -.199E-08   -.126E-01 0.589E-20 0.924E-20   -.176E-02 0.577E-09 0.576E-09
   -.590E+00 -.224E-02 -.224E-02   0.593E+00 0.226E-02 0.226E-02   -.101E-02 -.400E-04 -.400E-04   -.101E-02 0.246E-04 0.246E-04
   -.215E+00 0.921E-08 0.916E-08   0.216E+00 -.944E-08 -.944E-08   -.532E-04 -.865E-20 0.392E-20   -.588E-03 -.269E-09 -.269E-09
   -.221E-01 -.497E-08 0.135E+00   0.247E-01 0.546E-08 -.134E+00   -.178E-02 -.105E-10 -.575E-03   -.302E-03 0.111E-09 -.231E-03
   -.590E+00 -.224E-02 0.224E-02   0.593E+00 0.226E-02 -.226E-02   -.101E-02 -.400E-04 0.400E-04   -.101E-02 0.246E-04 -.246E-04
   -.446E+00 0.246E-07 0.200E-08   0.439E+00 -.255E-07 -.148E-08   0.612E-02 0.125E-19 -.262E-21   0.114E-03 -.482E-09 0.294E-09
   -.650E-03 -.365E-10 -.181E-08   -.108E-12 0.309E-13 -.563E-13   0.202E-02 0.171E-17 -.197E-18   -.446E-03 -.333E-10 -.350E-10

 POSITION                                       TOTAL-FORCE (eV/Angst)
      6.58420      6.58420      4.38947         0.000485      0.000073      0.000000
      6.58420      6.58420      0.00000         0.003361      0.004078     -0.000000
      6.58420      0.00000      2.19473         0.003361     -0.000000     -0.004078
      6.58420      2.19473      4.38947         0.000485     -0.000073      0.000000
      0.00000      6.58420      2.19473        -0.000919      0.000011     -0.000011
      0.00000      0.00000      4.38947        -0.000633     -0.000000      0.000000
      2.19473      6.58420      4.38947         0.000488     -0.000072     -0.000000
      6.58420      0.00000      6.58420         0.003361      0.000000      0.004078
      6.58420      2.19473      0.00000         0.003361     -0.004078      0.000000
      6.58420      4.38947      2.19473         0.000485     -0.000000     -0.000073
      0.00000      6.58420      6.58420        -0.000919      0.000011      0.000011
      0.02000      0.00000      0.00000        -0.031825      0.000000      0.000000
      0.00000      2.19473      2.19473        -0.000919     -0.000011     -0.000011
      0.00000      4.38947      4.38947        -0.000030     -0.000000     -0.000000
      2.19473      6.58420      0.00000         0.003732     -0.004544     -0.000000
      2.19473      0.00000      2.19473         0.003732      0.000000      0.004544
      2.19473      2.19473      4.38947         0.000488      0.000072      0.000000
      4.38947      6.58420      2.19473         0.001161     -0.000007      0.000007
      4.38947      0.00000      4.38947        -0.001060      0.000000      0.000000
      6.58420      4.38947      6.58420         0.000485      0.000000      0.000073
      0.00000      2.19473      6.58420        -0.000919     -0.000011      0.000011
      0.00000      4.38947      0.00000        -0.000633      0.000000      0.000000
      2.19473      0.00000      6.58420         0.003732     -0.000000     -0.004544
      2.19473      2.19473      0.00000         0.003732      0.004544     -0.000000
      2.19473      4.38947      2.19473         0.000488      0.000000      0.000072
      4.38947      6.58420      6.58420         0.001161     -0.000007     -0.000007
      4.38947      0.00000      0.00000         0.002314     -0.000000      0.000000
      4.38947      2.19473      2.19473         0.001161      0.000007      0.000007
      4.38947      4.38947      4.38947        -0.000305      0.000000     -0.000000
      2.19473      4.38947      6.58420         0.000488     -0.000000     -0.000072
      4.38947      2.19473      6.58420         0.001161      0.000007     -0.000007
      4.38947      4.38947      0.00000        -0.001060      0.000000     -0.000000
    total drift:                                0.000921     -0.000000     -0.000000

 mean value of Nose-termostat <S>:     1.000 mean value of <T> :     0.000
 mean temperature <T/S>/<1/S>  :     0.000