 vasp.4.6.28 25Jul05 complex
 executed on             LinuxIFC date 2017.01.14  06:53:04

 INCAR:
 POTCAR:   PAW_PBE Ag 06Sep2000
 POTCAR:   PAW_PBE Ag 06Sep2000
   VRHFIN =Ag : s1 d10

   TITEL  = PAW_PBE Ag 06Sep2000
   POMASS =  107.868; ZVAL   =   11.000    mass and valenz
   ENMAX  =  249.846; ENMIN  =  187.385 eV
   QCUT   =   -4.285; QGAM   =    8.570    optimization parameters

   Description
     l     E      TYP  RCUT    TYP  RCUT
     2   .000     23  2.400
     2   .000     23  2.400
     0   .000     23  2.400
     0   .000     23  2.400
     1  -.200     23  2.400
     1  1.500     23  2.400
     3   .000      7   .000

 WARNING: PSMAXN for non-local potential too small
          PSMAXN should be >   16.2007969712021       NTYP=           1
 PAW_PBE Ag 06Sep2000                   :

 POSCAR: Ag
  positions in direct lattice
  velocities in cartesian coordinates

 ion  position               nearest neighbor table
   1  0.000  0.000  0.000-   2 2.94   3 2.94   4 2.94   3 2.94   4 2.94   2 2.94   4 2.94   4 2.94
                             2 2.94   3 2.94   3 2.94   2 2.94
   2  0.500  0.500  0.000-   1 2.94   3 2.94   4 2.94   3 2.94   4 2.94   1 2.94   3 2.94   3 2.94
                             1 2.94   4 2.94   4 2.94   1 2.94
   3  0.500  0.000  0.500-   1 2.94   2 2.94   4 2.94   1 2.94   2 2.94   2 2.94   4 2.94   2 2.94
                             1 2.94   4 2.94   1 2.94   4 2.94
   4  0.000  0.500  0.500-   1 2.94   2 2.94   3 2.94   1 2.94   2 2.94   1 2.94   3 2.94   1 2.94
                             2 2.94   3 2.94   2 2.94   3 2.94

  LATTYP: Found a simple cubic cell.
 ALAT       =     4.1637691263

  Lattice vectors:

 A1 = (   4.1637691263,   0.0000000000,   0.0000000000)
 A2 = (   0.0000000000,   4.1637691263,   0.0000000000)
 A3 = (   0.0000000000,   0.0000000000,   4.1637691263)
 Subroutine PRICEL returns following result:

  LATTYP: Found a face centered cubic cell.
 ALAT       =     4.1637691263

  Lattice vectors:

 A1 = (   2.0818845631,   2.0818845631,   0.0000000000)
 A2 = (   2.0818845631,   0.0000000000,  -2.0818845631)
 A3 = (   0.0000000000,   2.0818845631,  -2.0818845631)

   4 primitive cells build up your supercell.

Analysis of symmetry for initial positions (statically):

 Routine SETGRP: Setting up the symmetry group for a
 simple cubic supercell.

 Subroutine GETGRP returns: Found 48 space group operations
 (whereof 48 operations were pure point group operations)
 out of a pool of 48 trial point group operations.

The static configuration has the point symmetry O_h .

Analysis of symmetry for dynamics (positions and initial velocities):

 Subroutine DYNSYM returns: Found 48 space group operations
 (whereof 48 operations were pure point group operations)
 out of a pool of 48 trial space group operations
 (whereof 48 operations were pure point group operations)
 and found also     4 'primitive' translations

The dynamic configuration has the point symmetry O_h .

 KPOINTS: Automatic mesh

Automatic generation of k-mesh.

 Subroutine IBZKPT returns following result:

 Found   1330 irreducible k-points:

 Following reciprocal coordinates:
            Coordinates               Weight
  0.000000  0.000000  0.000000      1.000000
  0.027778  0.000000  0.000000      6.000000
  0.055556  0.000000  0.000000      6.000000
  0.083333  0.000000  0.000000      6.000000
  0.111111  0.000000  0.000000      6.000000
  0.138889  0.000000  0.000000      6.000000
  0.166667  0.000000  0.000000      6.000000
  0.194444  0.000000  0.000000      6.000000
  0.222222  0.000000  0.000000      6.000000
  0.250000  0.000000  0.000000      6.000000
  0.277778  0.000000  0.000000      6.000000
  0.305556  0.000000  0.000000      6.000000
  0.333333  0.000000  0.000000      6.000000
  0.361111  0.000000  0.000000      6.000000
  0.388889  0.000000  0.000000      6.000000
  0.416667  0.000000  0.000000      6.000000
  0.444444  0.000000  0.000000      6.000000
  0.472222  0.000000  0.000000      6.000000
  0.500000  0.000000  0.000000      3.000000
  0.027778  0.027778  0.000000     12.000000
  0.055556  0.027778  0.000000     24.000000
  0.083333  0.027778  0.000000     24.000000
  0.111111  0.027778  0.000000     24.000000
  0.138889  0.027778  0.000000     24.000000
  0.166667  0.027778  0.000000     24.000000
  0.194444  0.027778  0.000000     24.000000
  0.222222  0.027778  0.000000     24.000000
  0.250000  0.027778  0.000000     24.000000
  0.277778  0.027778  0.000000     24.000000
  0.305556  0.027778  0.000000     24.000000
  0.333333  0.027778  0.000000     24.000000
  0.361111  0.027778  0.000000     24.000000
  0.388889  0.027778  0.000000     24.000000
  0.416667  0.027778  0.000000     24.000000
  0.444444  0.027778  0.000000     24.000000
  0.472222  0.027778  0.000000     24.000000
  0.500000  0.027778  0.000000     12.000000
  0.055556  0.055556  0.000000     12.000000
  0.083333  0.055556  0.000000     24.000000
  0.111111  0.055556  0.000000     24.000000
  0.138889  0.055556  0.000000     24.000000
  0.166667  0.055556  0.000000     24.000000
  0.194444  0.055556  0.000000     24.000000
  0.222222  0.055556  0.000000     24.000000
  0.250000  0.055556  0.000000     24.000000
  0.277778  0.055556  0.000000     24.000000
  0.305556  0.055556  0.000000     24.000000
  0.333333  0.055556  0.000000     24.000000
  0.361111  0.055556  0.000000     24.000000
  0.388889  0.055556  0.000000     24.000000
  0.416667  0.055556  0.000000     24.000000
  0.444444  0.055556  0.000000     24.000000
  0.472222  0.055556  0.000000     24.000000
  0.500000  0.055556  0.000000     12.000000
  0.083333  0.083333  0.000000     12.000000
  0.111111  0.083333  0.000000     24.000000
  0.138889  0.083333  0.000000     24.000000
  0.166667  0.083333  0.000000     24.000000
  0.194444  0.083333  0.000000     24.000000
  0.222222  0.083333  0.000000     24.000000
[...]
  0.472222  0.444444  0.416667     48.000000
  0.500000  0.444444  0.416667     24.000000
  0.472222  0.472222  0.416667     24.000000
  0.500000  0.472222  0.416667     24.000000
  0.500000  0.500000  0.416667      6.000000
  0.444444  0.444444  0.444444      8.000000
  0.472222  0.444444  0.444444     24.000000
  0.500000  0.444444  0.444444     12.000000
  0.472222  0.472222  0.444444     24.000000
  0.500000  0.472222  0.444444     24.000000
  0.500000  0.500000  0.444444      6.000000
  0.472222  0.472222  0.472222      8.000000
  0.500000  0.472222  0.472222     12.000000
  0.500000  0.500000  0.472222      6.000000
  0.500000  0.500000  0.500000      1.000000

 Following cartesian coordinates:
            Coordinates               Weight
  0.000000  0.000000  0.000000      1.000000
  0.006671  0.000000  0.000000      6.000000
  0.013343  0.000000  0.000000      6.000000
  0.020014  0.000000  0.000000      6.000000
  0.026685  0.000000  0.000000      6.000000
  0.033357  0.000000  0.000000      6.000000
  0.040028  0.000000  0.000000      6.000000
  0.046699  0.000000  0.000000      6.000000
  0.053370  0.000000  0.000000      6.000000
  0.060042  0.000000  0.000000      6.000000
  0.066713  0.000000  0.000000      6.000000
  0.073384  0.000000  0.000000      6.000000
  0.080056  0.000000  0.000000      6.000000
  0.086727  0.000000  0.000000      6.000000
  0.093398  0.000000  0.000000      6.000000
  0.100070  0.000000  0.000000      6.000000
  0.106741  0.000000  0.000000      6.000000
  0.113412  0.000000  0.000000      6.000000
  0.120084  0.000000  0.000000      3.000000
  0.006671  0.006671  0.000000     12.000000
  0.013343  0.006671  0.000000     24.000000
  0.020014  0.006671  0.000000     24.000000
  0.026685  0.006671  0.000000     24.000000
  0.033357  0.006671  0.000000     24.000000
  0.040028  0.006671  0.000000     24.000000
  0.046699  0.006671  0.000000     24.000000
  0.053370  0.006671  0.000000     24.000000
  0.060042  0.006671  0.000000     24.000000
  0.066713  0.006671  0.000000     24.000000
  0.073384  0.006671  0.000000     24.000000
  0.080056  0.006671  0.000000     24.000000
  0.086727  0.006671  0.000000     24.000000
  0.093398  0.006671  0.000000     24.000000
  0.100070  0.006671  0.000000     24.000000
  0.106741  0.006671  0.000000     24.000000
  0.113412  0.006671  0.000000     24.000000
  0.120084  0.006671  0.000000     12.000000
  0.013343  0.013343  0.000000     12.000000
  0.020014  0.013343  0.000000     24.000000
  0.026685  0.013343  0.000000     24.000000
  0.033357  0.013343  0.000000     24.000000
  0.040028  0.013343  0.000000     24.000000
  0.046699  0.013343  0.000000     24.000000
  0.053370  0.013343  0.000000     24.000000
  0.060042  0.013343  0.000000     24.000000
  0.066713  0.013343  0.000000     24.000000
  0.073384  0.013343  0.000000     24.000000
  0.080056  0.013343  0.000000     24.000000
  0.086727  0.013343  0.000000     24.000000
  0.093398  0.013343  0.000000     24.000000
  0.100070  0.013343  0.000000     24.000000
  0.106741  0.013343  0.000000     24.000000
  0.113412  0.013343  0.000000     24.000000
  0.120084  0.013343  0.000000     12.000000
  0.020014  0.020014  0.000000     12.000000
  0.026685  0.020014  0.000000     24.000000
  0.033357  0.020014  0.000000     24.000000
  0.040028  0.020014  0.000000     24.000000
  0.046699  0.020014  0.000000     24.000000
  0.053370  0.020014  0.000000     24.000000
[...]
  0.113412  0.106741  0.100070     48.000000
  0.120084  0.106741  0.100070     24.000000
  0.113412  0.113412  0.100070     24.000000
  0.120084  0.113412  0.100070     24.000000
  0.120084  0.120084  0.100070      6.000000
  0.106741  0.106741  0.106741      8.000000
  0.113412  0.106741  0.106741     24.000000
  0.120084  0.106741  0.106741     12.000000
  0.113412  0.113412  0.106741     24.000000
  0.120084  0.113412  0.106741     24.000000
  0.120084  0.120084  0.106741      6.000000
  0.113412  0.113412  0.113412      8.000000
  0.120084  0.113412  0.113412     12.000000
  0.120084  0.120084  0.113412      6.000000
  0.120084  0.120084  0.120084      1.000000

 I would recommend the setting:
   dimension x,y,z NGX =    43 NGY =   43 NGZ =   43
 SYSTEM =  unknown system
 POSCAR =  Ag

 Startparameter for this run:
   NWRITE =      2    write-flag & timer
   PREC   = accura    medium, high low
   ISTART =      0    job   : 0-new  1-cont  2-samecut
   ICHARG =      2    charge: 1-file 2-atom 10-const
   ISPIN  =      1    spin polarized calculation?
   LNONCOLLINEAR =      F non collinear calculations
   LSORBIT =      F    spin-orbit coupling
   INIWAV =      1    electr: 0-lowe 1-rand  2-diag
   LASPH  =      F    aspherical Exc in radial PAW
   METAGGA=      F    non-selfconsistent MetaGGA calc.

 Electronic Relaxation 1
   ENCUT  = 1000.0 eV  73.50 Ry    8.57 a.u.  10.74 10.74 10.74*2*pi/ulx,y,z
   ENINI  = 1000.0     initial cutoff
   ENAUG  =  412.5 eV  augmentation charge cutoff
   NELM   =     60;   NELMIN=  2; NELMDL= -5     # of ELM steps
   EDIFF  = 0.1E-07   stopping-criterion for ELM
   LREAL  =      F    real-space projection
   LCOMPAT=      F    compatible to vasp.4.4
   LREAL_COMPAT= F    compatible to vasp.4.5.1-3
   GGA_COMPAT  = T    GGA compatible to vasp.4.4-vasp.4.6
[...]
 k-point 25 :  0.16670.02780.0000  plane waves:   5181
 k-point 26 :  0.19440.02780.0000  plane waves:   5183
 k-point 27 :  0.22220.02780.0000  plane waves:   5181
 k-point 28 :  0.25000.02780.0000  plane waves:   5191
 k-point 29 :  0.27780.02780.0000  plane waves:   5184
 k-point 30 :  0.30560.02780.0000  plane waves:   5179
 k-point 31 :  0.33330.02780.0000  plane waves:   5182
 k-point 32 :  0.36110.02780.0000  plane waves:   5180
 k-point 33 :  0.38890.02780.0000  plane waves:   5170
 k-point 34 :  0.41670.02780.0000  plane waves:   5172
 k-point 35 :  0.44440.02780.0000  plane waves:   5172
 k-point 36 :  0.47220.02780.0000  plane waves:   5170
 k-point 37 :  0.50000.02780.0000  plane waves:   5172
 k-point 38 :  0.05560.05560.0000  plane waves:   5173
 k-point 39 :  0.08330.05560.0000  plane waves:   5178
 k-point 40 :  0.11110.05560.0000  plane waves:   5182
 k-point 41 :  0.13890.05560.0000  plane waves:   5179
 k-point 42 :  0.16670.05560.0000  plane waves:   5181
 k-point 43 :  0.19440.05560.0000  plane waves:   5180
 k-point 44 :  0.22220.05560.0000  plane waves:   5177
 k-point 45 :  0.25000.05560.0000  plane waves:   5185
 k-point 46 :  0.27780.05560.0000  plane waves:   5180
 k-point 47 :  0.30560.05560.0000  plane waves:   5181
 k-point 48 :  0.33330.05560.0000  plane waves:   5176
 k-point 49 :  0.36110.05560.0000  plane waves:   5180
 k-point 50 :  0.38890.05560.0000  plane waves:   5178
 k-point 51 :  0.41670.05560.0000  plane waves:   5180
 k-point 52 :  0.44440.05560.0000  plane waves:   5175
 k-point 53 :  0.47220.05560.0000  plane waves:   5176
 k-point 54 :  0.50000.05560.0000  plane waves:   5180
 k-point 55 :  0.08330.08330.0000  plane waves:   5169
 k-point 56 :  0.11110.08330.0000  plane waves:   5177
 k-point 57 :  0.13890.08330.0000  plane waves:   5178
 k-point 58 :  0.16670.08330.0000  plane waves:   5181
 k-point 59 :  0.19440.08330.0000  plane waves:   5177
 k-point 60 :  0.22220.08330.0000  plane waves:   5184
[...]
 k-point 85 :  0.50000.11110.0000  plane waves:   5176
 k-point 86 :  0.13890.13890.0000  plane waves:   5185
 k-point 87 :  0.16670.13890.0000  plane waves:   5179
 k-point 88 :  0.19440.13890.0000  plane waves:   5186
 k-point 89 :  0.22220.13890.0000  plane waves:   5186
 k-point 90 :  0.25000.13890.0000  plane waves:   5187
 k-point 91 :  0.27780.13890.0000  plane waves:   5176
 k-point 92 :  0.30560.13890.0000  plane waves:   5185
 k-point 93 :  0.33330.13890.0000  plane waves:   5181
 k-point 94 :  0.36110.13890.0000  plane waves:   5184
 k-point 95 :  0.38890.13890.0000  plane waves:   5179
 k-point 96 :  0.41670.13890.0000  plane waves:   5183
 k-point 97 :  0.44440.13890.0000  plane waves:   5176
 k-point 98 :  0.47220.13890.0000  plane waves:   5185
 k-point 99 :  0.50000.13890.0000  plane waves:   5184
 k-point ** :  0.16670.16670.0000  plane waves:   5179
 k-point ** :  0.19440.16670.0000  plane waves:   5191
 k-point ** :  0.22220.16670.0000  plane waves:   5186
 k-point ** :  0.25000.16670.0000  plane waves:   5184
 k-point ** :  0.27780.16670.0000  plane waves:   5182
 k-point ** :  0.30560.16670.0000  plane waves:   5184
 k-point ** :  0.33330.16670.0000  plane waves:   5182
 k-point ** :  0.36110.16670.0000  plane waves:   5180
 k-point ** :  0.38890.16670.0000  plane waves:   5182
 k-point ** :  0.41670.16670.0000  plane waves:   5187
 k-point ** :  0.44440.16670.0000  plane waves:   5180
 k-point ** :  0.47220.16670.0000  plane waves:   5185
 k-point ** :  0.50000.16670.0000  plane waves:   5170
 k-point ** :  0.19440.19440.0000  plane waves:   5195
 k-point ** :  0.22220.19440.0000  plane waves:   5191
 k-point ** :  0.25000.19440.0000  plane waves:   5175
 k-point ** :  0.27780.19440.0000  plane waves:   5180
 k-point ** :  0.30560.19440.0000  plane waves:   5194
 k-point ** :  0.33330.19440.0000  plane waves:   5185
 k-point ** :  0.36110.19440.0000  plane waves:   5189
 k-point ** :  0.38890.19440.0000  plane waves:   5189
 k-point ** :  0.41670.19440.0000  plane waves:   5179
 k-point ** :  0.44440.19440.0000  plane waves:   5184
 k-point ** :  0.47220.19440.0000  plane waves:   5181
 k-point ** :  0.50000.19440.0000  plane waves:   5182
 k-point ** :  0.22220.22220.0000  plane waves:   5183
 k-point ** :  0.25000.22220.0000  plane waves:   5184
 k-point ** :  0.27780.22220.0000  plane waves:   5192
 k-point ** :  0.30560.22220.0000  plane waves:   5192
 k-point ** :  0.33330.22220.0000  plane waves:   5175
 k-point ** :  0.36110.22220.0000  plane waves:   5184
 k-point ** :  0.38890.22220.0000  plane waves:   5187
 k-point ** :  0.41670.22220.0000  plane waves:   5181
 k-point ** :  0.44440.22220.0000  plane waves:   5182
 k-point ** :  0.47220.22220.0000  plane waves:   5182
 k-point ** :  0.50000.22220.0000  plane waves:   5180
 k-point ** :  0.25000.25000.0000  plane waves:   5185
 k-point ** :  0.27780.25000.0000  plane waves:   5187
 k-point ** :  0.30560.25000.0000  plane waves:   5192
 k-point ** :  0.33330.25000.0000  plane waves:   5190
 k-point ** :  0.36110.25000.0000  plane waves:   5188
 k-point ** :  0.38890.25000.0000  plane waves:   5181
 k-point ** :  0.41670.25000.0000  plane waves:   5188
 k-point ** :  0.44440.25000.0000  plane waves:   5189
 k-point ** :  0.47220.25000.0000  plane waves:   5186
 k-point ** :  0.50000.25000.0000  plane waves:   5166
 k-point ** :  0.27780.27780.0000  plane waves:   5191
 k-point ** :  0.30560.27780.0000  plane waves:   5185
 k-point ** :  0.33330.27780.0000  plane waves:   5185
 k-point ** :  0.36110.27780.0000  plane waves:   5190
 k-point ** :  0.38890.27780.0000  plane waves:   5192
 k-point ** :  0.41670.27780.0000  plane waves:   5194
 k-point ** :  0.44440.27780.0000  plane waves:   5186
 k-point ** :  0.47220.27780.0000  plane waves:   5191
 k-point ** :  0.50000.27780.0000  plane waves:   5182
 k-point ** :  0.30560.30560.0000  plane waves:   5179
 k-point ** :  0.33330.30560.0000  plane waves:   5188
 k-point ** :  0.36110.30560.0000  plane waves:   5180
 k-point ** :  0.38890.30560.0000  plane waves:   5187
 k-point ** :  0.41670.30560.0000  plane waves:   5194
[...]
 k-point ** :  0.47220.44440.4167  plane waves:   5188
 k-point ** :  0.50000.44440.4167  plane waves:   5186
 k-point ** :  0.47220.47220.4167  plane waves:   5180
 k-point ** :  0.50000.47220.4167  plane waves:   5180
 k-point ** :  0.50000.50000.4167  plane waves:   5172
 k-point ** :  0.44440.44440.4444  plane waves:   5190
 k-point ** :  0.47220.44440.4444  plane waves:   5175
 k-point ** :  0.50000.44440.4444  plane waves:   5170
 k-point ** :  0.47220.47220.4444  plane waves:   5171
 k-point ** :  0.50000.47220.4444  plane waves:   5172
 k-point ** :  0.50000.50000.4444  plane waves:   5172
 k-point ** :  0.47220.47220.4722  plane waves:   5181
 k-point ** :  0.50000.47220.4722  plane waves:   5204
 k-point ** :  0.50000.50000.4722  plane waves:   5224
 k-point ** :  0.50000.50000.5000  plane waves:   5232

 maximum and minimum number of plane-waves per node :   5232  5156

 maximum number of plane-waves:   5232
 maximal index in each direction:
   IXMAX= 10   IYMAX= 10   IZMAX= 10
   IXMIN=-11   IYMIN=-11   IZMIN=-11

 NGX is ok and might be reduce to  44
 NGY is ok and might be reduce to  44
 NGZ is ok and might be reduce to  44

 parallel 3dFFT wavefunction:
    minimum data exchange during FFTs selected (reduces bandwidth)
 parallel 3dFFT charge:
    minimum data exchange during FFTs selected (reduces bandwidth)

Broyden mixing: mesh for mixing (old mesh)
   NGX = 21   NGY = 21   NGZ = 21
  (NGX  = 96   NGY  = 96   NGZ  = 96)
 gives a total of   9261 points
 initial charge density was supplied:
 charge density of overlapping atoms calculated
 number of electron   44.0000000 magnetization
 keeping initial charge density in first step

 Maximum index for augmentation-charges        73281 (set IRDMAX)

 First call to EWALD:  gamma=   0.426
 Maximum number of real-space cells 3x 3x 3
 Maximum number of reciprocal cells 3x 3x 3

----------------------------------------- Iteration    1(   1)  ---------------------------------------

 eigenvalue-minimisations  : 85136
 total energy-change (2. order) : 0.5352400E+03  (-0.3225333E+04)
 number of electron   44.0000000 magnetization
 augmentation part    44.0000000 magnetization

 Free energy of the ion-electron system (eV)
  alpha Z        PSCENC =       393.59403410
  Ewald energy   TEWEN  =     -3837.17033646
  -1/2 Hartree   DENC   =      -845.41197788
  -V(xc)+E(xc)   XCENC  =       -43.39887999
  PAW double counting   =      3482.67677651    -3297.07979946
  entropy T*S    EENTRO =        -0.00011830
  eigenvalues    EBANDS =       532.37791908
  atomic energy  EATOM  =      4149.65242778
  free energy    TOTEN  =       535.24004538 eV

  energy without entropy =      535.24016368  energy(sigma->0) =      535.24010453

[...]

 eigenvalue-minimisations  : 85208
 total energy-change (2. order) :-0.5323244E+03  (-0.4973763E+03)
 number of electron   44.0000000 magnetization
 augmentation part    44.0000000 magnetization

[...]

 eigenvalue-minimisations  :101176
 total energy-change (2. order) :-0.3175951E-03  (-0.3175903E-03)
 number of electron   44.0000001 magnetization
 augmentation part    20.3989519 magnetization

 Broyden mixing:
  rms(total) = 0.55855E+00    rms(broyden)= 0.55855E+00
  rms(prec ) = 0.13839E+01
  weight for this iteration     100.00

[...]

 eigenvalues of (default mixing * dielectric matrix)
  average eigenvalue GAMMA=   1.0570
  1.0570

[...]

 eigenvalue-minimisations  : 98048
 total energy-change (2. order) :-0.1451334E-03  (-0.2182314E-04)
 number of electron   44.0000001 magnetization
 augmentation part    21.1150597 magnetization

[...]

 Broyden mixing:
  rms(total) = 0.47011E-05    rms(broyden)= 0.47011E-05
  rms(prec ) = 0.94263E-05
  weight for this iteration     100.00

 eigenvalues of (default mixing * dielectric matrix)
  average eigenvalue GAMMA=   1.7952
  2.8484  2.5267  2.4836  2.4836  1.0121  1.0121  0.9712  1.0242

[...]

----------------------------------------- Iteration    1(  14)  ---------------------------------------

 eigenvalue-minimisations  : 52152
 total energy-change (2. order) : 0.3482455E-08  (-0.1122207E-10)
 number of electron   44.0000001 magnetization
 augmentation part    21.1135548 magnetization

 Free energy of the ion-electron system (eV)
  alpha Z        PSCENC =       393.59403410
  Ewald energy   TEWEN  =     -3837.17033646
  -1/2 Hartree   DENC   =      -798.43003342
  -V(xc)+E(xc)   XCENC  =       -45.12701461
  PAW double counting   =      3467.89494331    -3290.69698764
  entropy T*S    EENTRO =        -0.00004476
  eigenvalues    EBANDS =       -51.02557352
  atomic energy  EATOM  =      4149.65242778
  free energy    TOTEN  =       -11.30858524 eV

  energy without entropy =      -11.30854048  energy(sigma->0) =      -11.30856286

 average (electrostatic) potential at core
  the test charge radii are     1.1249
  (the norm of the test charge is              1.0000)
       1 -41.6326       2 -41.6326       3 -41.6326       4 -41.6326

 E-fermi :   3.0619     XC(G=0): -11.8742     alpha+bet : -8.0684
   add alpha+bet to get absolut eigen values

 k-point   1 :       0.0000    0.0000    0.0000
  band No.  band energies     occupation
      1      -4.3319      2.00000
      2      -3.0814      2.00000
      3      -3.0814      2.00000
      4      -3.0814      2.00000
      5      -2.9634      2.00000
      6      -2.9634      2.00000
      7      -2.9634      2.00000
      8      -1.6062      2.00000
      9      -1.6062      2.00000
     10      -1.6062      2.00000
     11      -0.6701      2.00000
     12      -0.6701      2.00000
     13       0.0203      2.00000
     14       0.0203      2.00000
     15       0.0203      2.00000
     16       0.2371      2.00000
     17       0.2371      2.00000
     18       0.2371      2.00000
     19       0.2371      2.00000
     20       0.2371      2.00000
     21       0.2371      2.00000
     22       4.6961      0.00000
     23       4.6961      0.00000
     24       4.6961      0.00000
     25       9.3491      0.00000
     26       9.3491      0.00000
     27       9.3491      0.00000
     28      13.5717      0.00000
     29      13.5717      0.00000
     30      13.5717      0.00000
     31      13.5717      0.00000
     32      13.5717      0.00000

[...]

 k-point *** :       0.5000    0.5000    0.5000
  band No.  band energies     occupation
      1      -3.0466      2.00000
      2      -3.0466      2.00000
      3      -3.0466      2.00000
      4      -3.0466      2.00000
      5      -1.6238      2.00000
      6      -1.6238      2.00000
      7      -1.6238      2.00000
      8      -1.6238      2.00000
      9      -1.6238      2.00000
     10      -1.6238      2.00000
     11      -1.6238      2.00000
     12      -1.6238      2.00000
     13       0.0498      2.00000
     14       0.0498      2.00000
     15       0.0498      2.00000
     16       0.0498      2.00000
     17       0.0498      2.00000
     18       0.0498      2.00000
     19       0.0498      2.00000
     20       0.0498      2.00000
     21       2.7757      2.00000
     22       2.7757      2.00000
     23       2.7757      2.00000
     24       2.7757      2.00000
     25       6.3355      0.00000
     26       6.3355      0.00000
     27       6.3355      0.00000
     28       6.3355      0.00000
     29      18.7555      0.00000
     30      18.7555      0.00000
     31      18.7555      0.00000
     32      18.7555      0.00000

 soft charge-density along one line, spin component           1
         0         1         2         3         4         5         6         7         8         9
 total charge-density along one line

------------------------ aborting loop because EDIFF is reached ----------------------------------------

  FREE ENERGIE OF THE ION-ELECTRON SYSTEM (eV)
  free  energy   TOTEN  =       -11.308585 eV

  energy  without entropy=      -11.308540  energy(sigma->0) =      -11.308563

  FORCE on cell =-STRESS in cart. coord.  units (eV/reduce length):
  Direction    X        Y        Z        XY       YZ       ZX
  Alpha Z    393.59    393.59    393.59
  Ewald    -1279.06  -1279.06  -1279.06      0.00     -0.00     -0.00
  Hartree    266.14    266.14    266.14      0.00     -0.00     -0.00
  E(xc)     -232.45   -232.45   -232.45     -0.00      0.00      0.00
  Local      403.74    403.74    403.74     -0.00      0.00     -0.00
  n-local   -257.68   -265.67   -267.91      0.26      2.41      0.72
  augment    167.62    167.62    167.62     -0.00     -0.00     -0.00
  Kinetic    551.83    542.79    537.88     -3.09      0.58     -1.28
  Total        0.01      0.01      0.01      0.00      0.00      0.00
  in kB        0.15      0.15      0.15      0.00      0.00      0.00

 VOLUME and BASIS-vectors are now :
  energy-cutoff  :     1000.00
  volume of cell :       72.19
      direct lattice vectors                 reciprocal lattice vectors
     4.163769126  0.000000000  0.000000000     0.240167014  0.000000000  0.000000000
     0.000000000  4.163769126  0.000000000     0.000000000  0.240167014  0.000000000
     0.000000000  0.000000000  4.163769126     0.000000000  0.000000000  0.240167014

  length of vectors
     4.163769126  4.163769126  4.163769126     0.240167014  0.240167014  0.240167014

 FORCES acting on ions
    electron-ion (+dipol)            ewald-force                    non-local-force                 convergence-correction
   -.321E-13 -.398E-13 -.477E-13   -.167E-13 -.104E-13 0.185E-14   0.764E-26 -.259E-26 -.392E-26   -.201E-13 0.162E-14 -.221E-13
   0.287E-12 -.494E-12 -.495E-12   0.674E-14 -.826E-14 0.200E-14   -.406E-27 0.499E-26 -.142E-25   0.167E-13 0.261E-14 -.259E-13
   0.287E-12 -.391E-13 -.318E-11   0.190E-16 0.600E-14 -.260E-14   0.122E-25 0.125E-25 -.105E-25   0.212E-13 0.471E-14 0.249E-13
   -.325E-13 0.280E-12 0.272E-12   0.644E-14 0.811E-14 -.245E-14   -.114E-25 -.258E-25 -.212E-25   -.164E-13 0.237E-14 0.219E-13
   0.510E-12 -.293E-12 -.345E-11   -.346E-14 -.452E-14 -.120E-14   0.797E-26 -.109E-25 -.499E-25   0.137E-14 0.113E-13 -.121E-14

 POSITION                                       TOTAL-FORCE (eV/Angst)
      0.00000      0.00000      0.00000        -0.000000      0.000000      0.000000
      2.08188      2.08188      0.00000        -0.000000     -0.000000     -0.000000
      2.08188      0.00000      2.08188        -0.000000      0.000000     -0.000000
      0.00000      2.08188      2.08188        -0.000000      0.000000     -0.000000
    total drift:                                0.000000     -0.000000     -0.000000

 mean value of Nose-termostat <S>:     1.000 mean value of <T> :     0.000
 mean temperature <T/S>/<1/S>  :     0.000