 vasp.4.6.28 25Jul05 complex
 executed on             LinuxIFC date 2016.08.29  19:12:05

 INCAR:
 POTCAR:   PAW_PBE Ag 06Sep2000
 POTCAR:   PAW_PBE Ag 06Sep2000
   VRHFIN =Ag : s1 d10

   TITEL  = PAW_PBE Ag 06Sep2000
   POMASS =  107.868; ZVAL   =   11.000    mass and valenz
   ENMAX  =  249.846; ENMIN  =  187.385 eV
   QCUT   =   -4.285; QGAM   =    8.570    optimization parameters

   Description
     l     E      TYP  RCUT    TYP  RCUT
     2   .000     23  2.400
     2   .000     23  2.400
     0   .000     23  2.400
     0   .000     23  2.400
     1  -.200     23  2.400
     1  1.500     23  2.400
     3   .000      7   .000

 PAW_PBE Ag 06Sep2000                   :

 POSCAR: No title
  positions in direct lattice

 ion  position               nearest neighbor table
   1  0.750  0.750  0.500-   3 2.99   5 2.99  14 2.99  19 2.99  20 2.99  26 2.99   6 2.99  29 2.99
                            11 2.99  18 2.99  10 2.99   8 2.99
   2  0.750  0.750  0.000-   8 2.99  10 2.99  11 2.99  18 2.99  22 2.99  27 2.99  12 2.99  32 2.99
                             5 2.99  26 2.99   3 2.99  20 2.99
   3  0.750  0.000  0.250-   1 2.99   5 2.99   9 2.99  12 2.99  19 2.99  28 2.99  13 2.99  18 2.99
                            27 2.99   6 2.99   4 2.99   2 2.99
   4  0.750  0.250  0.500-   6 2.99   8 2.99  10 2.99  13 2.99  29 2.99  31 2.99  14 2.99  19 2.99
                            21 2.99  28 2.99   3 2.99  20 2.99
   5  0.000  0.750  0.250-   1 2.99   3 2.99  12 2.99  14 2.99  15 2.99  25 2.99  16 2.99  10 2.99
                             2 2.99   7 2.99  22 2.99   6 2.99
   6  0.000  0.000  0.500-   4 2.99   7 2.99   8 2.99  11 2.99  13 2.99  16 2.99   1 2.99  17 2.99
                             3 2.99  23 2.99  21 2.99   5 2.99
   7  0.250  0.750  0.500-   6 2.99  11 2.99  16 2.99  18 2.99  29 2.99  30 2.99  14 2.99  19 2.99
                             5 2.99  26 2.99  25 2.99  23 2.99
   8  0.750  0.000  0.750-   2 2.99   4 2.99   6 2.99  11 2.99  27 2.99  31 2.99  21 2.99  26 2.99
                            12 2.99  19 2.99   9 2.99   1 2.99
   9  0.750  0.250  0.000-   3 2.99  12 2.99  20 2.99  21 2.99  28 2.99  32 2.99  22 2.99  27 2.99
                            31 2.99  13 2.99  10 2.99   8 2.99
  10  0.750  0.500  0.250-   2 2.99   4 2.99  13 2.99  18 2.99  22 2.99  29 2.99  28 2.99   5 2.99
                            14 2.99  32 2.99   9 2.99   1 2.99
  11  0.000  0.750  0.750-   2 2.99   6 2.99   7 2.99   8 2.99  22 2.99  30 2.99  23 2.99  20 2.99
                             1 2.99  15 2.99  14 2.99  12 2.99
  12  0.000  0.000  0.000-   3 2.99   5 2.99   9 2.99  15 2.99  21 2.99  23 2.99   2 2.99  24 2.99
                            16 2.99   8 2.99  13 2.99  11 2.99
  13  0.000  0.250  0.250-   4 2.99   6 2.99  10 2.99  16 2.99  22 2.99  24 2.99   3 2.99  25 2.99
                            17 2.99   9 2.99  14 2.99  12 2.99
  14  0.000  0.500  0.500-   1 2.99   5 2.99  17 2.99  20 2.99  21 2.99  25 2.99   4 2.99   7 2.99
                            10 2.99  30 2.99  13 2.99  11 2.99
  15  0.250  0.750  0.000-   5 2.99  12 2.99  23 2.99  25 2.99  26 2.99  32 2.99  27 2.99  22 2.99
                            11 2.99  18 2.99  30 2.99  16 2.99
  16  0.250  0.000  0.250-   6 2.99   7 2.99  13 2.99  18 2.99  24 2.99  27 2.99   5 2.99  28 2.99
                            19 2.99  12 2.99  17 2.99  15 2.99
  17  0.250  0.250  0.500-  14 2.99  19 2.99  21 2.99  23 2.99  25 2.99  28 2.99   6 2.99  29 2.99
                            13 2.99  31 2.99  30 2.99  16 2.99
  18  0.500  0.750  0.250-   2 2.99   7 2.99  10 2.99  16 2.99  27 2.99  29 2.99   3 2.99  25 2.99
                             1 2.99  15 2.99  19 2.99  32 2.99
  19  0.500  0.000  0.500-   1 2.99   3 2.99  17 2.99  23 2.99  26 2.99  28 2.99   4 2.99   7 2.99
                             8 2.99  16 2.99  18 2.99  31 2.99
  20  0.750  0.500  0.750-   1 2.99   9 2.99  14 2.99  21 2.99  26 2.99  32 2.99  31 2.99  11 2.99
                            22 2.99  29 2.99   4 2.99   2 2.99
  21  0.000  0.250  0.750-   9 2.99  12 2.99  14 2.99  17 2.99  20 2.99  23 2.99   8 2.99  30 2.99
                            24 2.99   4 2.99  22 2.99   6 2.99
  22  0.000  0.500  0.000-   2 2.99  10 2.99  11 2.99  13 2.99  24 2.99  30 2.99   9 2.99  15 2.99
                            25 2.99  20 2.99  21 2.99   5 2.99
  23  0.250  0.000  0.750-  12 2.99  15 2.99  17 2.99  19 2.99  21 2.99  26 2.99  11 2.99  31 2.99
                            27 2.99   6 2.99  24 2.99   7 2.99
  24  0.250  0.250  0.000-  13 2.99  16 2.99  22 2.99  27 2.99  30 2.99  31 2.99  12 2.99  32 2.99
                            28 2.99  21 2.99  25 2.99  23 2.99
  25  0.250  0.500  0.250-   5 2.99  14 2.99  15 2.99  17 2.99  28 2.99  32 2.99  13 2.99  18 2.99
                            29 2.99  22 2.99  24 2.99   7 2.99
  26  0.500  0.750  0.750-   1 2.99  15 2.99  19 2.99  20 2.99  23 2.99  32 2.99  30 2.99   8 2.99
                             7 2.99   2 2.99  27 2.99  29 2.99
  27  0.500  0.000  0.000-   2 2.99   8 2.99  16 2.99  18 2.99  24 2.99  31 2.99   9 2.99  15 2.99
                             3 2.99  23 2.99  28 2.99  26 2.99
  28  0.500  0.250  0.250-   3 2.99   9 2.99  17 2.99  19 2.99  25 2.99  32 2.99  10 2.99  16 2.99
                             4 2.99  24 2.99  29 2.99  27 2.99
  29  0.500  0.500  0.500-   4 2.99   7 2.99  10 2.99  18 2.99  30 2.99  31 2.99  17 2.99   1 2.99
                            20 2.99  25 2.99  26 2.99  28 2.99
  30  0.250  0.500  0.750-   7 2.99  11 2.99  22 2.99  24 2.99  29 2.99  31 2.99  21 2.99  26 2.99
                            14 2.99  32 2.99  17 2.99  15 2.99
  31  0.500  0.250  0.750-   4 2.99   8 2.99  24 2.99  27 2.99  29 2.99  30 2.99  20 2.99  23 2.99
                             9 2.99  17 2.99  19 2.99  32 2.99
  32  0.500  0.500  0.000-   9 2.99  15 2.99  20 2.99  25 2.99  26 2.99  28 2.99  24 2.99   2 2.99
                            10 2.99  30 2.99  18 2.99  31 2.99

  LATTYP: Found a simple cubic cell.
 ALAT       =     8.4507526300

  Lattice vectors:

 A1 = (   8.4507526300,   0.0000000000,   0.0000000000)
 A2 = (   0.0000001500,   8.4507526300,   0.0000000000)
 A3 = (   0.0000001500,   0.0000001500,   8.4507526300)
 Subroutine PRICEL returns following result:

  LATTYP: Found a face centered cubic cell.
 ALAT       =     4.2253763525

  Lattice vectors:

 A1 = (   2.1126881950,   2.1126881575,   0.0000000000)
 A2 = (   2.1126881200,  -0.0000000375,  -2.1126881575)
 A3 = (   0.0000000000,   2.1126881200,  -2.1126881575)

  32 primitive cells build up your supercell.

Analysis of symmetry for initial positions (statically):

 Routine SETGRP: Setting up the symmetry group for a
 simple cubic supercell.

 Subroutine GETGRP returns: Found 48 space group operations
 (whereof 48 operations were pure point group operations)
 out of a pool of 48 trial point group operations.

The static configuration has the point symmetry O_h .

Analysis of symmetry for dynamics (positions and initial velocities):

 Subroutine DYNSYM returns: Found 48 space group operations
 (whereof 48 operations were pure point group operations)
 out of a pool of 48 trial space group operations
 (whereof 48 operations were pure point group operations)
 and found also    32 'primitive' translations

The dynamic configuration has the point symmetry O_h .

 KPOINTS: Automatic mesh

Automatic generation of k-mesh.

 Subroutine IBZKPT returns following result:

 Found      1 irreducible k-points:

 Following reciprocal coordinates:
            Coordinates               Weight
  0.250000  0.250000  0.250000      8.000000

 Following cartesian coordinates:
            Coordinates               Weight
  0.029583  0.029583  0.029583      8.000000

 I would recommend the setting:
   dimension x,y,z NGX =    33 NGY =   33 NGZ =   33
 SYSTEM =  No title
 POSCAR =  No title

 Startparameter for this run:
   NWRITE =      2    write-flag & timer
   PREC   = normal    medium, high low
   ISTART =      0    job   : 0-new  1-cont  2-samecut
   ICHARG =      2    charge: 1-file 2-atom 10-const
   ISPIN  =      1    spin polarized calculation?
   LNONCOLLINEAR =      F non collinear calculations
   LSORBIT =      F    spin-orbit coupling
   INIWAV =      1    electr: 0-lowe 1-rand  2-diag
   LASPH  =      F    aspherical Exc in radial PAW
   METAGGA=      F    non-selfconsistent MetaGGA calc.

 Electronic Relaxation 1
   ENCUT  =  249.8 eV  18.36 Ry    4.29 a.u.  10.89 10.89 10.89*2*pi/ulx,y,z
   ENINI  =  249.8     initial cutoff
   ENAUG  =  412.5 eV  augmentation charge cutoff
   NELM   =     60;   NELMIN=  2; NELMDL= -5     # of ELM steps
   EDIFF  = 0.1E-04   stopping-criterion for ELM
   LREAL  =      F    real-space projection
   LCOMPAT=      F    compatible to vasp.4.4
   LREAL_COMPAT= F    compatible to vasp.4.5.1-3
   GGA_COMPAT  = T    GGA compatible to vasp.4.4-vasp.4.6
   LMAXPAW     = -100 max onsite density
   LMAXMIX     =    2 max onsite mixed and CHGCAR
   VOSKOWN=      1    Vosko Wilk Nusair interpolation
   ROPT   =    0.00000
 Ionic relaxation
   EDIFFG = -.2E-01   stopping-criterion for IOM
   NSW    =    100    number of steps for IOM
   NBLOCK =      1;   KBLOCK =    100    inner block; outer block
   IBRION =      2    ionic relax: 0-MD 1-quasi-New 2-CG
   NFREE  =      1    steps in history (QN), initial steepest desc. (CG)
   ISIF   =      2    stress and relaxation
   IWAVPR =     11    prediction:  0-non 1-charg 2-wave 3-comb
   ISYM   =      2    0-nonsym 1-usesym 2-fastsym
   LCORR  =      T    Harris-Foulkes like correction to forces

   POTIM  =   0.50    time-step for ionic-motion
   TEIN   =    0.0    initial temperature
   TEBEG  =    0.0;   TEEND  =   0.0 temperature during run
   SMASS  =  -3.00    Nose mass-parameter (am)
   estimated Nose-frequenzy (Omega)   =  0.10E-29 period in steps =****** mass=  -0.163E-26a.u.
   NPACO  =    256;   APACO  = 16.0  distance and # of slots for P.C.
   PSTRESS=    0.0 pullay stress

  Mass of Ions in am
   POMASS = 107.87
  Ionic Valenz
   ZVAL   =  11.00
  Atomic Wigner-Seitz radii
   NELECT =     352.0000    total number of electrons
   NUPDOWN=      -1.0000    fix difference up-down

 DOS related values:
   EMIN   =  10.00;   EMAX   =-10.00  energy-range for DOS
   ISMEAR =     1;   SIGMA  =   0.20  broadening in eV -4-tet -1-fermi 0-gaus

 Electronic relaxation 2 (details)
   IALGO  =     38    algorithm
   LDIAG  =      T    sub-space diagonalisation
   IMIX   =      4    mixing-type and parameters
     AMIX     =   0.40;   BMIX     =  1.00
     AMIX_MAG =   1.60;   BMIX_MAG =  1.00
     AMIN     =   0.10
     WC   =   100.;   INIMIX=   1;  MIXPRE=   1

 Intra band minimization:
   WEIMIN = 0.0010     energy-eigenvalue tresh-hold
   EBREAK =  0.12E-07  absolut break condition
   DEPER  =   0.30     relativ break condition

   TIME   =   0.10     timestep for ELM

  volume/ion in A,a.u.               =      18.86       127.27
  Fermi-wavevector in a.u.,eV,Ry     =   1.367814 25.455340  1.870915

 Second variation
   LSECVAR=     F    do a second variation

 Write flags
   LWAVE  =      T    write WAVECAR
   LCHARG =      F    write CHGCAR
[...]
   2.11268827  4.22537635  2.11268816
   4.22537654  6.33806459  6.33806447
   4.22537632  0.00000000  0.00000000
   4.22537639  2.11268820  2.11268816
   4.22537647  4.22537639  4.22537632
   2.11268835  4.22537643  6.33806447
   4.22537647  2.11268827  6.33806447
   4.22537639  4.22537632  0.00000000

 k-point  1 :  0.25000.25000.2500  plane waves:   5395

 maximum and minimum number of plane-waves per node :   5395  5395

 maximum number of plane-waves:   5395
 maximal index in each direction:
   IXMAX= 10   IYMAX= 10   IZMAX= 10
   IXMIN=-11   IYMIN=-11   IZMIN=-11

 WARNING: wrap around error must be expected set NGX to  44
 WARNING: wrap around error must be expected set NGY to  44
 WARNING: wrap around error must be expected set NGZ to  44

 parallel 3dFFT wavefunction:
    minimum data exchange during FFTs selected (reduces bandwidth)
 parallel 3dFFT charge:
    minimum data exchange during FFTs selected (reduces bandwidth)

Broyden mixing: mesh for mixing (old mesh)
   NGX = 21   NGY = 21   NGZ = 21
  (NGX  = 72   NGY  = 72   NGZ  = 72)
 gives a total of   9261 points
 initial charge density was supplied:
 charge density of overlapping atoms calculated
 number of electron  352.0000000 magnetization
 keeping initial charge density in first step

 Maximum index for augmentation-charges          953 (set IRDMAX)

 First call to EWALD:  gamma=   0.210
 Maximum number of real-space cells 3x 3x 3
 Maximum number of reciprocal cells 3x 3x 3

----------------------------------------- Iteration    1(   1)  ---------------------------------------

 eigenvalue-minimisations  :   432
 total energy-change (2. order) : 0.2043660E+04  (-0.1148908E+05)
 number of electron  352.0000000 magnetization
 augmentation part   352.0000000 magnetization

 Free energy of the ion-electron system (eV)
  alpha Z        PSCENC =      3013.02153097
  Ewald energy   TEWEN  =    -30249.78966039
  -1/2 Hartree   DENC   =     -6984.24325349
  -V(xc)+E(xc)   XCENC  =      -350.75084959
  PAW double counting   =     27861.41421209   -26376.63839568
  entropy T*S    EENTRO =         0.00791786
  eigenvalues    EBANDS =      1935.61308229
  atomic energy  EATOM  =     33195.02507890
  free energy    TOTEN  =      2043.65966296 eV

  energy without entropy =     2043.65174510  energy(sigma->0) =     2043.65702368

[...]

 eigenvalue-minimisations  :   428
 total energy-change (2. order) :-0.2047254E+04  (-0.1947748E+04)
 number of electron  352.0000000 magnetization
 augmentation part   352.0000000 magnetization

[...]

 Broyden mixing:
  rms(total) = 0.14609E+01    rms(broyden)= 0.14603E+01
  rms(prec ) = 0.22078E+01
  weight for this iteration     100.00

[...]

 eigenvalues of (default mixing * dielectric matrix)
  average eigenvalue GAMMA=   1.0641
  1.0641

[...]

 eigenvalue-minimisations  :   440
 total energy-change (2. order) :-0.5393408E-03  (-0.1385104E-03)
 number of electron  351.9996701 magnetization
 augmentation part   169.1754872 magnetization

[...]

 Broyden mixing:
  rms(total) = 0.69772E-03    rms(broyden)= 0.69696E-03
  rms(prec ) = 0.98717E-03
  weight for this iteration     100.00

 eigenvalues of (default mixing * dielectric matrix)
  average eigenvalue GAMMA=   1.7570
  2.8017  2.4691  1.0220  1.0220  1.4700

[...]

----------------------------------------- Iteration    1(  11)  ---------------------------------------

 eigenvalue-minimisations  :   232
 total energy-change (2. order) : 0.6685776E-05  (-0.3891060E-06)
 number of electron  351.9996702 magnetization
 augmentation part   169.1666609 magnetization

 Free energy of the ion-electron system (eV)
  alpha Z        PSCENC =      3013.02153097
  Ewald energy   TEWEN  =    -30249.78966039
  -1/2 Hartree   DENC   =     -6625.62424890
  -V(xc)+E(xc)   XCENC  =      -364.07127936
  PAW double counting   =     27652.74989659   -26229.68748707
  entropy T*S    EENTRO =        -0.17247273
  eigenvalues    EBANDS =      -480.55915944
  atomic energy  EATOM  =     33195.02507890
  free energy    TOTEN  =       -89.10780144 eV

  energy without entropy =      -88.93532871  energy(sigma->0) =      -89.05031053

 average (electrostatic) potential at core
  the test charge radii are     1.1249
  (the norm of the test charge is              1.0000)
       1 -41.8527       2 -41.8527       3 -41.8527       4 -41.8527       5 -41.8527
       6 -41.8527       7 -41.8527       8 -41.8527       9 -41.8527      10 -41.8527
      11 -41.8527      12 -41.8527      13 -41.8527      14 -41.8527      15 -41.8527
      16 -41.8527      17 -41.8527      18 -41.8527      19 -41.8527      20 -41.8527
      21 -41.8527      22 -41.8527      23 -41.8527      24 -41.8527      25 -41.8527
      26 -41.8527      27 -41.8527      28 -41.8527      29 -41.8527      30 -41.8527
      31 -41.8527      32 -41.8527

 E-fermi :   2.4494     XC(G=0): -11.6111     alpha+bet : -7.7206
   add alpha+bet to get absolut eigen values

 k-point   1 :       0.2500    0.2500    0.2500
  band No.  band energies     occupation
      1      -3.9471      2.00000
      2      -3.0602      2.00000
      3      -3.0203      2.00000
      4      -3.0203      2.00000
      5      -3.0203      2.00000
      6      -2.9877      2.00000
      7      -2.9877      2.00000
      8      -2.9877      2.00000
      9      -2.9105      2.00000
     10      -2.9105      2.00000
     11      -2.9105      2.00000
     12      -2.8495      2.00000
     13      -2.8495      2.00000
     14      -2.8495      2.00000
     15      -2.7222      2.00000
     16      -2.7222      2.00000
     17      -2.7222      2.00000
     18      -2.7055      2.00000
     19      -2.7055      2.00000
     20      -2.7055      2.00000
     21      -2.5950      2.00000
     22      -2.5950      2.00000
     23      -2.5950      2.00000
     24      -2.5950      2.00000
     25      -2.5950      2.00000
     26      -2.5950      2.00000
     27      -2.5384      2.00000
     28      -2.5384      2.00000
     29      -2.5384      2.00000
     30      -2.5122      2.00000
     31      -2.5122      2.00000
     32      -2.5122      2.00000
     33      -2.5122      2.00000
     34      -2.5122      2.00000
     35      -2.5122      2.00000
     36      -2.4895      2.00000
     37      -2.4895      2.00000
     38      -2.4895      2.00000
     39      -2.3413      2.00000
     40      -2.3413      2.00000
     41      -2.3413      2.00000
     42      -2.3413      2.00000
     43      -2.3413      2.00000
     44      -2.3413      2.00000
     45      -2.1091      2.00000
     46      -2.1091      2.00000
     47      -2.1091      2.00000
     48      -2.0459      2.00000
     49      -2.0459      2.00000
     50      -2.0459      2.00000
     51      -2.0318      2.00000
     52      -2.0318      2.00000
     53      -2.0318      2.00000
     54      -2.0318      2.00000
     55      -2.0318      2.00000
     56      -2.0318      2.00000
     57      -1.9302      2.00000
     58      -1.9302      2.00000
     59      -1.9302      2.00000
     60      -1.8629      2.00000
[...]
    198       7.2508     -0.00000
    199       8.1155      0.00000
    200       8.1155      0.00000
    201       8.1155      0.00000
    202       8.1155      0.00000
    203       8.1155      0.00000
    204       8.1155      0.00000
    205       8.6172      0.00000
    206       9.5165      0.00000
    207       9.5165      0.00000
    208       9.5165      0.00000
    209       9.5165      0.00000
    210       9.5165      0.00000
    211       9.5165      0.00000
    212       9.9753      0.00000

 soft charge-density along one line, spin component           1
         0         1         2         3         4         5         6         7         8         9
 total charge-density along one line

------------------------ aborting loop because EDIFF is reached ----------------------------------------

  FREE ENERGIE OF THE ION-ELECTRON SYSTEM (eV)
  free  energy   TOTEN  =       -89.107801 eV

  energy  without entropy=      -88.935329  energy(sigma->0) =      -89.050311

  FORCE on cell =-STRESS in cart. coord.  units (eV/reduce length):
  Direction    X        Y        Z        XY       YZ       ZX
  Alpha Z   3013.02   3013.02   3013.02
  Ewald   -10083.31 -10083.31 -10083.31     -0.00     -0.00     -0.00
  Hartree   2208.55   2208.55   2208.55     -0.00     -0.00     -0.00
  E(xc)    -1857.12  -1857.12  -1857.12     -0.00     -0.00     -0.00
  Local     3147.28   3147.28   3147.28      0.00      0.00      0.00
  n-local  -2135.89  -2135.89  -2135.89      3.36      3.36      3.36
  augment   1338.49   1338.49   1338.49     -0.00     -0.00     -0.00
  Kinetic   4349.82   4349.82   4349.82     -3.54     -3.54     -3.54
  Total      -19.15    -19.15    -19.15     -0.00     -0.00     -0.00
  in kB      -50.85    -50.85    -50.85     -0.00     -0.00     -0.00

 VOLUME and BASIS-vectors are now :
  energy-cutoff  :      249.85
  volume of cell :      603.51
      direct lattice vectors                 reciprocal lattice vectors
     8.450752630  0.000000000  0.000000000     0.118332656 -0.000000002 -0.000000002
     0.000000150  8.450752630  0.000000000     0.000000000  0.118332656 -0.000000002
     0.000000150  0.000000150  8.450752630     0.000000000  0.000000000  0.118332656

  length of vectors
     8.450752630  8.450752630  8.450752630     0.118332656  0.118332656  0.118332656

 FORCES acting on ions
    electron-ion (+dipol)            ewald-force                    non-local-force                 convergence-correction
   0.108E-11 0.221E-11 0.470E-12   0.320E-13 -.269E-12 0.713E-13   -.726E-23 0.440E-23 -.414E-24   0.490E-13 -.291E-12 0.232E-12
   0.108E-11 0.164E-11 0.638E-11   0.639E-13 -.202E-12 -.169E-13   0.868E-23 -.630E-23 0.103E-23   -.555E-13 0.372E-12 -.194E-12
   0.108E-11 -.230E-12 -.438E-11   -.497E-13 -.101E-12 0.204E-13   0.670E-23 -.612E-23 0.403E-23   -.186E-12 -.892E-13 -.139E-11
   0.108E-11 0.738E-11 0.413E-12   -.444E-13 -.210E-12 0.928E-14   0.136E-22 0.346E-23 -.155E-24   -.756E-13 0.301E-12 0.403E-12
   -.928E-13 0.108E-11 0.198E-12   -.188E-13 -.197E-12 0.115E-13   -.486E-23 -.441E-24 -.195E-23   0.373E-12 0.101E-12 -.850E-12
   -.976E-13 -.111E-12 0.460E-12   -.739E-13 -.152E-12 0.282E-13   0.449E-23 -.231E-23 -.308E-23   0.470E-12 0.554E-13 0.201E-12
   0.252E-12 0.544E-12 0.116E-11   -.657E-13 -.915E-13 0.133E-12   0.536E-23 -.223E-23 -.103E-23   -.419E-13 -.133E-12 -.818E-13
   0.107E-11 -.106E-12 0.561E-11   0.169E-13 -.694E-13 -.560E-13   -.207E-23 0.264E-23 0.290E-23   0.142E-12 0.133E-12 0.131E-11
   0.108E-11 -.364E-12 -.198E-11   0.533E-14 0.178E-13 -.320E-13   0.348E-23 -.864E-23 0.414E-24   -.112E-12 -.358E-12 -.434E-12
   0.108E-11 0.448E-11 0.312E-11   -.648E-13 0.712E-13 -.639E-13   0.919E-23 0.316E-23 -.315E-23   -.130E-12 0.319E-13 -.715E-12
   -.951E-13 0.108E-11 0.102E-11   -.206E-13 -.373E-13 0.275E-13   0.757E-24 -.384E-23 0.248E-23   0.503E-13 -.502E-14 0.825E-12
   -.946E-13 -.110E-12 -.145E-12   -.122E-12 0.360E-13 -.560E-13   0.309E-23 -.188E-23 0.341E-23   -.170E-13 0.238E-13 -.807E-13
   -.101E-12 0.249E-12 0.205E-12   0.400E-13 -.302E-13 -.702E-13   0.592E-23 -.981E-23 -.220E-23   0.541E-12 -.241E-13 -.820E-12
   -.969E-13 0.511E-12 0.463E-12   0.486E-13 0.338E-13 0.781E-13   0.439E-23 -.486E-23 -.227E-23   0.320E-12 -.757E-13 0.267E-12
   0.256E-12 0.241E-11 -.140E-11   -.906E-13 -.604E-13 -.470E-13   0.147E-22 -.566E-23 -.362E-23   0.670E-13 0.116E-12 0.143E-12
   0.261E-12 -.825E-13 0.885E-12   -.138E-12 0.464E-13 0.453E-13   -.141E-22 0.324E-23 0.372E-23   0.181E-12 0.143E-12 -.929E-12
   0.261E-12 0.270E-12 0.114E-11   0.711E-14 -.129E-12 0.123E-12   0.502E-24 0.291E-23 -.346E-23   0.412E-13 0.153E-12 -.689E-13
   0.485E-12 0.350E-12 0.674E-12   0.360E-14 -.175E-12 0.195E-13   -.123E-22 -.157E-24 -.424E-23   -.351E-12 0.144E-12 -.103E-11
   0.496E-12 -.783E-13 0.182E-11   0.562E-13 0.401E-14 0.124E-12   0.500E-23 -.286E-23 0.196E-23   -.428E-12 0.186E-12 -.151E-12
   0.108E-11 0.446E-11 -.194E-11   0.533E-14 0.806E-13 -.355E-14   0.894E-23 -.269E-23 0.165E-23   -.221E-13 -.147E-12 0.660E-12
   -.992E-13 0.249E-12 0.103E-11   0.458E-13 0.176E-12 -.293E-13   0.687E-24 0.816E-24 0.538E-23   0.322E-13 0.624E-13 0.784E-12
   -.925E-13 0.508E-12 -.147E-12   0.654E-13 0.115E-12 -.134E-12   0.587E-23 -.581E-23 -.145E-23   0.240E-12 -.354E-13 -.211E-12
   0.262E-12 -.109E-12 0.169E-11   0.107E-13 0.117E-12 -.169E-13   0.394E-23 -.345E-23 0.827E-24   -.140E-12 0.151E-12 0.791E-12
   0.262E-12 0.330E-12 0.534E-12   0.497E-13 0.453E-13 -.266E-13   -.882E-23 0.281E-23 -.155E-23   0.836E-13 -.103E-12 0.129E-12
   0.254E-12 0.504E-12 0.884E-12   -.338E-13 0.953E-13 -.675E-13   -.957E-24 -.118E-22 -.693E-23   0.124E-12 -.810E-13 -.640E-12
   0.488E-12 0.431E-11 0.145E-11   0.359E-13 0.950E-13 -.533E-14   -.661E-23 -.130E-23 0.248E-23   -.311E-13 -.187E-12 0.865E-12
   0.493E-12 -.112E-12 -.287E-11   0.110E-12 0.597E-13 0.531E-14   0.499E-23 -.172E-23 0.233E-23   0.576E-13 0.788E-13 0.227E-12
   0.495E-12 0.215E-11 0.686E-12   -.130E-12 0.187E-13 -.888E-14   -.409E-23 -.857E-25 0.620E-23   -.512E-12 -.880E-13 -.913E-12
   0.498E-12 0.506E-12 -.233E-11   -.842E-14 0.180E-12 0.277E-13   -.159E-23 -.352E-23 -.455E-23   -.309E-12 -.153E-12 0.113E-12
   0.255E-12 0.586E-12 0.170E-11   0.648E-13 0.171E-12 -.121E-12   -.497E-23 -.409E-23 0.000E+00   0.193E-13 -.965E-13 0.567E-12
   0.497E-12 -.170E-11 0.151E-11   0.234E-13 0.118E-12 0.231E-13   0.152E-23 0.147E-23 -.207E-23   -.145E-13 0.222E-12 0.763E-12
   0.496E-12 0.615E-12 0.119E-11   -.824E-13 0.323E-12 -.941E-13   -.551E-24 -.423E-23 0.155E-23   -.225E-12 -.480E-13 -.153E-12
   0.139E-10 0.334E-10 0.195E-10   -.258E-12 0.803E-13 -.102E-12   0.437E-22 -.689E-22 -.174E-23   0.142E-12 0.359E-12 -.378E-12

 POSITION                                       TOTAL-FORCE (eV/Angst)
      6.33806      6.33806      4.22538        -0.000000     -0.000000     -0.000000
      6.33806      6.33806      0.00000        -0.000000      0.000000      0.000000
      6.33806      0.00000      2.11269         0.000000     -0.000000     -0.000000
      6.33806      2.11269      4.22538         0.000000     -0.000000      0.000000
      0.00000      6.33806      2.11269         0.000000      0.000000     -0.000000
      0.00000      0.00000      4.22538         0.000000      0.000000     -0.000000
      2.11269      6.33806      4.22538        -0.000000      0.000000      0.000000
      6.33806      0.00000      6.33806        -0.000000      0.000000      0.000000
      6.33806      2.11269      0.00000         0.000000     -0.000000      0.000000
      6.33806      4.22538      2.11269         0.000000      0.000000      0.000000
      0.00000      6.33806      6.33806        -0.000000      0.000000      0.000000
      0.00000      0.00000      0.00000        -0.000000      0.000000     -0.000000
      0.00000      2.11269      2.11269        -0.000000     -0.000000     -0.000000
      0.00000      4.22538      4.22538         0.000000      0.000000     -0.000000
      2.11269      6.33806      0.00000        -0.000000     -0.000000     -0.000000
      2.11269      0.00000      2.11269         0.000000     -0.000000      0.000000
      2.11269      2.11269      4.22538         0.000000     -0.000000     -0.000000
      4.22538      6.33806      2.11269         0.000000      0.000000     -0.000000
      4.22538      0.00000      4.22538         0.000000      0.000000      0.000000
      6.33806      4.22538      6.33806        -0.000000     -0.000000     -0.000000
      0.00000      2.11269      6.33806        -0.000000     -0.000000     -0.000000
      0.00000      4.22538      0.00000         0.000000     -0.000000      0.000000
      2.11269      0.00000      6.33806        -0.000000      0.000000     -0.000000
      2.11269      2.11269      0.00000         0.000000      0.000000     -0.000000
      2.11269      4.22538      2.11269        -0.000000     -0.000000      0.000000
      4.22538      6.33806      6.33806        -0.000000     -0.000000     -0.000000
      4.22538      0.00000      0.00000        -0.000000     -0.000000      0.000000
      4.22538      2.11269      2.11269         0.000000      0.000000      0.000000
      4.22538      4.22538      4.22538         0.000000      0.000000      0.000000
      2.11269      4.22538      6.33806        -0.000000     -0.000000      0.000000
      4.22538      2.11269      6.33806         0.000000      0.000000     -0.000000
      4.22538      4.22538      0.00000        -0.000000      0.000000     -0.000000
    total drift:                                0.000000      0.000000      0.000000

 reached required accuracy - stopping structural energy minimisation
 writing wavefunctions