 vasp.4.6.28 25Jul05 complex
 executed on             LinuxIFC date 2017.01.11  18:35:16

 INCAR:
 POTCAR:   PAW_PBE Cu 05Jan2001
 POTCAR:   PAW_PBE Cu 05Jan2001
   VRHFIN =Cu: d10 p1

   TITEL  = PAW_PBE Cu 05Jan2001
   POMASS =   63.546; ZVAL   =   11.000    mass and valenz
   ENMAX  =  273.214; ENMIN  =  204.910 eV
   QCUT   =   -4.481; QGAM   =    8.962    optimization parameters

   Description
     l     E      TYP  RCUT    TYP  RCUT
     2   .000     23  2.300
     2   .000     23  2.300
     0   .000     23  2.300
     0   .000     23  2.300
     1  -.200     23  2.300
     1   .000     23  2.300
     3   .000      7   .000

 PAW_PBE Cu 05Jan2001                   :

 POSCAR: Cu
  positions in direct lattice
  velocities in cartesian coordinates

 ion  position               nearest neighbor table
   1  0.000  0.000  0.000-   2 2.49   3 2.49   4 2.49   3 2.49   4 2.49   2 2.49   4 2.49   4 2.49
                             2 2.49   3 2.49   3 2.49   2 2.49
   2  0.500  0.500  0.000-   1 2.49   3 2.49   4 2.49   3 2.49   4 2.49   1 2.49   3 2.49   3 2.49
                             1 2.49   4 2.49   4 2.49   1 2.49
   3  0.500  0.000  0.500-   1 2.49   2 2.49   4 2.49   1 2.49   2 2.49   2 2.49   4 2.49   2 2.49
                             1 2.49   4 2.49   1 2.49   4 2.49
   4  0.000  0.500  0.500-   1 2.49   2 2.49   3 2.49   1 2.49   2 2.49   1 2.49   3 2.49   1 2.49
                             2 2.49   3 2.49   2 2.49   3 2.49

  LATTYP: Found a simple cubic cell.
 ALAT       =     3.5277194984

  Lattice vectors:

 A1 = (   3.5277194984,   0.0000000000,   0.0000000000)
 A2 = (   0.0000000000,   3.5277194984,   0.0000000000)
 A3 = (   0.0000000000,   0.0000000000,   3.5277194984)
 Subroutine PRICEL returns following result:

  LATTYP: Found a face centered cubic cell.
 ALAT       =     3.5277194984

  Lattice vectors:

 A1 = (   1.7638597492,   1.7638597492,   0.0000000000)
 A2 = (   1.7638597492,   0.0000000000,  -1.7638597492)
 A3 = (   0.0000000000,   1.7638597492,  -1.7638597492)

   4 primitive cells build up your supercell.

Analysis of symmetry for initial positions (statically):

 Routine SETGRP: Setting up the symmetry group for a
 simple cubic supercell.

 Subroutine GETGRP returns: Found 48 space group operations
 (whereof 48 operations were pure point group operations)
 out of a pool of 48 trial point group operations.

The static configuration has the point symmetry O_h .

Analysis of symmetry for dynamics (positions and initial velocities):

 Subroutine DYNSYM returns: Found 48 space group operations
 (whereof 48 operations were pure point group operations)
 out of a pool of 48 trial space group operations
 (whereof 48 operations were pure point group operations)
 and found also     4 'primitive' translations

The dynamic configuration has the point symmetry O_h .

 KPOINTS: Automatic mesh

Automatic generation of k-mesh.

 Subroutine IBZKPT returns following result:

 Found    455 irreducible k-points:

 Following reciprocal coordinates:
            Coordinates               Weight
  0.000000  0.000000  0.000000      1.000000
  0.041667  0.000000  0.000000      6.000000
  0.083333  0.000000  0.000000      6.000000
  0.125000  0.000000  0.000000      6.000000
  0.166667  0.000000  0.000000      6.000000
  0.208333  0.000000  0.000000      6.000000
  0.250000  0.000000  0.000000      6.000000
  0.291667  0.000000  0.000000      6.000000
  0.333333  0.000000  0.000000      6.000000
  0.375000  0.000000  0.000000      6.000000
  0.416667  0.000000  0.000000      6.000000
  0.458333  0.000000  0.000000      6.000000
  0.500000  0.000000  0.000000      3.000000
  0.041667  0.041667  0.000000     12.000000
  0.083333  0.041667  0.000000     24.000000
  0.125000  0.041667  0.000000     24.000000
  0.166667  0.041667  0.000000     24.000000
  0.208333  0.041667  0.000000     24.000000
  0.250000  0.041667  0.000000     24.000000
  0.291667  0.041667  0.000000     24.000000
  0.333333  0.041667  0.000000     24.000000
  0.375000  0.041667  0.000000     24.000000
  0.416667  0.041667  0.000000     24.000000
  0.458333  0.041667  0.000000     24.000000
  0.500000  0.041667  0.000000     12.000000
  0.083333  0.083333  0.000000     12.000000
  0.125000  0.083333  0.000000     24.000000
  0.166667  0.083333  0.000000     24.000000
  0.208333  0.083333  0.000000     24.000000
  0.250000  0.083333  0.000000     24.000000
  0.291667  0.083333  0.000000     24.000000
  0.333333  0.083333  0.000000     24.000000
  0.375000  0.083333  0.000000     24.000000
  0.416667  0.083333  0.000000     24.000000
  0.458333  0.083333  0.000000     24.000000
  0.500000  0.083333  0.000000     12.000000
  0.125000  0.125000  0.000000     12.000000
  0.166667  0.125000  0.000000     24.000000
  0.208333  0.125000  0.000000     24.000000
  0.250000  0.125000  0.000000     24.000000
  0.291667  0.125000  0.000000     24.000000
  0.333333  0.125000  0.000000     24.000000
  0.375000  0.125000  0.000000     24.000000
  0.416667  0.125000  0.000000     24.000000
  0.458333  0.125000  0.000000     24.000000
  0.500000  0.125000  0.000000     12.000000
  0.166667  0.166667  0.000000     12.000000
  0.208333  0.166667  0.000000     24.000000
  0.250000  0.166667  0.000000     24.000000
  0.291667  0.166667  0.000000     24.000000
  0.333333  0.166667  0.000000     24.000000
  0.375000  0.166667  0.000000     24.000000
  0.416667  0.166667  0.000000     24.000000
  0.458333  0.166667  0.000000     24.000000
  0.500000  0.166667  0.000000     12.000000
  0.208333  0.208333  0.000000     12.000000
  0.250000  0.208333  0.000000     24.000000
  0.291667  0.208333  0.000000     24.000000
  0.333333  0.208333  0.000000     24.000000
  0.375000  0.208333  0.000000     24.000000
[...]
  0.458333  0.416667  0.375000     48.000000
  0.500000  0.416667  0.375000     24.000000
  0.458333  0.458333  0.375000     24.000000
  0.500000  0.458333  0.375000     24.000000
  0.500000  0.500000  0.375000      6.000000
  0.416667  0.416667  0.416667      8.000000
  0.458333  0.416667  0.416667     24.000000
  0.500000  0.416667  0.416667     12.000000
  0.458333  0.458333  0.416667     24.000000
  0.500000  0.458333  0.416667     24.000000
  0.500000  0.500000  0.416667      6.000000
  0.458333  0.458333  0.458333      8.000000
  0.500000  0.458333  0.458333     12.000000
  0.500000  0.500000  0.458333      6.000000
  0.500000  0.500000  0.500000      1.000000

 Following cartesian coordinates:
            Coordinates               Weight
  0.000000  0.000000  0.000000      1.000000
  0.011457  0.000000  0.000000      6.000000
  0.022914  0.000000  0.000000      6.000000
  0.034371  0.000000  0.000000      6.000000
  0.045828  0.000000  0.000000      6.000000
  0.057284  0.000000  0.000000      6.000000
  0.068741  0.000000  0.000000      6.000000
  0.080198  0.000000  0.000000      6.000000
  0.091655  0.000000  0.000000      6.000000
  0.103112  0.000000  0.000000      6.000000
  0.114569  0.000000  0.000000      6.000000
  0.126026  0.000000  0.000000      6.000000
  0.137483  0.000000  0.000000      3.000000
  0.011457  0.011457  0.000000     12.000000
  0.022914  0.011457  0.000000     24.000000
  0.034371  0.011457  0.000000     24.000000
  0.045828  0.011457  0.000000     24.000000
  0.057284  0.011457  0.000000     24.000000
  0.068741  0.011457  0.000000     24.000000
  0.080198  0.011457  0.000000     24.000000
  0.091655  0.011457  0.000000     24.000000
  0.103112  0.011457  0.000000     24.000000
  0.114569  0.011457  0.000000     24.000000
  0.126026  0.011457  0.000000     24.000000
  0.137483  0.011457  0.000000     12.000000
  0.022914  0.022914  0.000000     12.000000
  0.034371  0.022914  0.000000     24.000000
  0.045828  0.022914  0.000000     24.000000
  0.057284  0.022914  0.000000     24.000000
  0.068741  0.022914  0.000000     24.000000
  0.080198  0.022914  0.000000     24.000000
  0.091655  0.022914  0.000000     24.000000
  0.103112  0.022914  0.000000     24.000000
  0.114569  0.022914  0.000000     24.000000
  0.126026  0.022914  0.000000     24.000000
  0.137483  0.022914  0.000000     12.000000
  0.034371  0.034371  0.000000     12.000000
  0.045828  0.034371  0.000000     24.000000
  0.057284  0.034371  0.000000     24.000000
  0.068741  0.034371  0.000000     24.000000
  0.080198  0.034371  0.000000     24.000000
  0.091655  0.034371  0.000000     24.000000
  0.103112  0.034371  0.000000     24.000000
  0.114569  0.034371  0.000000     24.000000
  0.126026  0.034371  0.000000     24.000000
  0.137483  0.034371  0.000000     12.000000
  0.045828  0.045828  0.000000     12.000000
  0.057284  0.045828  0.000000     24.000000
  0.068741  0.045828  0.000000     24.000000
  0.080198  0.045828  0.000000     24.000000
  0.091655  0.045828  0.000000     24.000000
  0.103112  0.045828  0.000000     24.000000
  0.114569  0.045828  0.000000     24.000000
  0.126026  0.045828  0.000000     24.000000
  0.137483  0.045828  0.000000     12.000000
  0.057284  0.057284  0.000000     12.000000
  0.068741  0.057284  0.000000     24.000000
  0.080198  0.057284  0.000000     24.000000
  0.091655  0.057284  0.000000     24.000000
  0.103112  0.057284  0.000000     24.000000
[...]
  0.126026  0.114569  0.103112     48.000000
  0.137483  0.114569  0.103112     24.000000
  0.126026  0.126026  0.103112     24.000000
  0.137483  0.126026  0.103112     24.000000
  0.137483  0.137483  0.103112      6.000000
  0.114569  0.114569  0.114569      8.000000
  0.126026  0.114569  0.114569     24.000000
  0.137483  0.114569  0.114569     12.000000
  0.126026  0.126026  0.114569     24.000000
  0.137483  0.126026  0.114569     24.000000
  0.137483  0.137483  0.114569      6.000000
  0.126026  0.126026  0.126026      8.000000
  0.137483  0.126026  0.126026     12.000000
  0.137483  0.137483  0.126026      6.000000
  0.137483  0.137483  0.137483      1.000000

 I would recommend the setting:
   dimension x,y,z NGX =    33 NGY =   33 NGZ =   33
 SYSTEM =  unknown system
 POSCAR =  Cu

 Startparameter for this run:
   NWRITE =      2    write-flag & timer
   PREC   = accura    medium, high low
   ISTART =      0    job   : 0-new  1-cont  2-samecut
   ICHARG =      2    charge: 1-file 2-atom 10-const
   ISPIN  =      1    spin polarized calculation?
   LNONCOLLINEAR =      F non collinear calculations
   LSORBIT =      F    spin-orbit coupling
   INIWAV =      1    electr: 0-lowe 1-rand  2-diag
   LASPH  =      F    aspherical Exc in radial PAW
   METAGGA=      F    non-selfconsistent MetaGGA calc.

 Electronic Relaxation 1
   ENCUT  =  800.0 eV  58.80 Ry    7.67 a.u.   8.14  8.14  8.14*2*pi/ulx,y,z
   ENINI  =  800.0     initial cutoff
   ENAUG  =  516.5 eV  augmentation charge cutoff
   NELM   =     60;   NELMIN=  2; NELMDL= -5     # of ELM steps
   EDIFF  = 0.1E-07   stopping-criterion for ELM
   LREAL  =      F    real-space projection
   LCOMPAT=      F    compatible to vasp.4.4
   LREAL_COMPAT= F    compatible to vasp.4.5.1-3
   GGA_COMPAT  = T    GGA compatible to vasp.4.4-vasp.4.6
   LMAXPAW     = -100 max onsite density
   LMAXMIX     =    2 max onsite mixed and CHGCAR
[...]
 k-point 22 :  0.37500.04170.0000  plane waves:   2262
 k-point 23 :  0.41670.04170.0000  plane waves:   2255
 k-point 24 :  0.45830.04170.0000  plane waves:   2255
 k-point 25 :  0.50000.04170.0000  plane waves:   2252
 k-point 26 :  0.08330.08330.0000  plane waves:   2251
 k-point 27 :  0.12500.08330.0000  plane waves:   2252
 k-point 28 :  0.16670.08330.0000  plane waves:   2241
 k-point 29 :  0.20830.08330.0000  plane waves:   2249
 k-point 30 :  0.25000.08330.0000  plane waves:   2255
 k-point 31 :  0.29170.08330.0000  plane waves:   2258
 k-point 32 :  0.33330.08330.0000  plane waves:   2254
 k-point 33 :  0.37500.08330.0000  plane waves:   2257
 k-point 34 :  0.41670.08330.0000  plane waves:   2260
 k-point 35 :  0.45830.08330.0000  plane waves:   2256
 k-point 36 :  0.50000.08330.0000  plane waves:   2244
 k-point 37 :  0.12500.12500.0000  plane waves:   2253
 k-point 38 :  0.16670.12500.0000  plane waves:   2252
 k-point 39 :  0.20830.12500.0000  plane waves:   2252
 k-point 40 :  0.25000.12500.0000  plane waves:   2258
 k-point 41 :  0.29170.12500.0000  plane waves:   2260
 k-point 42 :  0.33330.12500.0000  plane waves:   2259
 k-point 43 :  0.37500.12500.0000  plane waves:   2254
 k-point 44 :  0.41670.12500.0000  plane waves:   2257
 k-point 45 :  0.45830.12500.0000  plane waves:   2252
 k-point 46 :  0.50000.12500.0000  plane waves:   2252
 k-point 47 :  0.16670.16670.0000  plane waves:   2261
 k-point 48 :  0.20830.16670.0000  plane waves:   2261
 k-point 49 :  0.25000.16670.0000  plane waves:   2253
 k-point 50 :  0.29170.16670.0000  plane waves:   2258
 k-point 51 :  0.33330.16670.0000  plane waves:   2260
 k-point 52 :  0.37500.16670.0000  plane waves:   2251
 k-point 53 :  0.41670.16670.0000  plane waves:   2246
 k-point 54 :  0.45830.16670.0000  plane waves:   2257
 k-point 55 :  0.50000.16670.0000  plane waves:   2250
 k-point 56 :  0.20830.20830.0000  plane waves:   2255
 k-point 57 :  0.25000.20830.0000  plane waves:   2260
 k-point 58 :  0.29170.20830.0000  plane waves:   2255
 k-point 59 :  0.33330.20830.0000  plane waves:   2257
 k-point 60 :  0.37500.20830.0000  plane waves:   2255
[...]
 k-point 85 :  0.50000.37500.0000  plane waves:   2252
 k-point 86 :  0.41670.41670.0000  plane waves:   2244
 k-point 87 :  0.45830.41670.0000  plane waves:   2236
 k-point 88 :  0.50000.41670.0000  plane waves:   2236
 k-point 89 :  0.45830.45830.0000  plane waves:   2238
 k-point 90 :  0.50000.45830.0000  plane waves:   2240
 k-point 91 :  0.50000.50000.0000  plane waves:   2216
 k-point 92 :  0.04170.04170.0417  plane waves:   2262
 k-point 93 :  0.08330.04170.0417  plane waves:   2253
 k-point 94 :  0.12500.04170.0417  plane waves:   2249
 k-point 95 :  0.16670.04170.0417  plane waves:   2247
 k-point 96 :  0.20830.04170.0417  plane waves:   2255
 k-point 97 :  0.25000.04170.0417  plane waves:   2260
 k-point 98 :  0.29170.04170.0417  plane waves:   2262
 k-point 99 :  0.33330.04170.0417  plane waves:   2258
 k-point ** :  0.37500.04170.0417  plane waves:   2261
 k-point ** :  0.41670.04170.0417  plane waves:   2256
 k-point ** :  0.45830.04170.0417  plane waves:   2252
 k-point ** :  0.50000.04170.0417  plane waves:   2256
 k-point ** :  0.08330.08330.0417  plane waves:   2245
 k-point ** :  0.12500.08330.0417  plane waves:   2242
 k-point ** :  0.16670.08330.0417  plane waves:   2248
 k-point ** :  0.20830.08330.0417  plane waves:   2253
 k-point ** :  0.25000.08330.0417  plane waves:   2256
 k-point ** :  0.29170.08330.0417  plane waves:   2256
 k-point ** :  0.33330.08330.0417  plane waves:   2253
 k-point ** :  0.37500.08330.0417  plane waves:   2251
 k-point ** :  0.41670.08330.0417  plane waves:   2258
 k-point ** :  0.45830.08330.0417  plane waves:   2256
 k-point ** :  0.50000.08330.0417  plane waves:   2254
 k-point ** :  0.12500.12500.0417  plane waves:   2240
 k-point ** :  0.16670.12500.0417  plane waves:   2251
 k-point ** :  0.20830.12500.0417  plane waves:   2260
 k-point ** :  0.25000.12500.0417  plane waves:   2257
 k-point ** :  0.29170.12500.0417  plane waves:   2255
 k-point ** :  0.33330.12500.0417  plane waves:   2252
 k-point ** :  0.37500.12500.0417  plane waves:   2253
 k-point ** :  0.41670.12500.0417  plane waves:   2252
 k-point ** :  0.45830.12500.0417  plane waves:   2253
 k-point ** :  0.50000.12500.0417  plane waves:   2256
 k-point ** :  0.16670.16670.0417  plane waves:   2260
 k-point ** :  0.20830.16670.0417  plane waves:   2260
 k-point ** :  0.25000.16670.0417  plane waves:   2260
 k-point ** :  0.29170.16670.0417  plane waves:   2255
 k-point ** :  0.33330.16670.0417  plane waves:   2254
 k-point ** :  0.37500.16670.0417  plane waves:   2254
 k-point ** :  0.41670.16670.0417  plane waves:   2251
 k-point ** :  0.45830.16670.0417  plane waves:   2254
 k-point ** :  0.50000.16670.0417  plane waves:   2250
 k-point ** :  0.20830.20830.0417  plane waves:   2261
 k-point ** :  0.25000.20830.0417  plane waves:   2254
 k-point ** :  0.29170.20830.0417  plane waves:   2251
 k-point ** :  0.33330.20830.0417  plane waves:   2256
 k-point ** :  0.37500.20830.0417  plane waves:   2249
 k-point ** :  0.41670.20830.0417  plane waves:   2246
 k-point ** :  0.45830.20830.0417  plane waves:   2250
 k-point ** :  0.50000.20830.0417  plane waves:   2248
 k-point ** :  0.25000.25000.0417  plane waves:   2254
 k-point ** :  0.29170.25000.0417  plane waves:   2248
 k-point ** :  0.33330.25000.0417  plane waves:   2254
 k-point ** :  0.37500.25000.0417  plane waves:   2254
 k-point ** :  0.41670.25000.0417  plane waves:   2246
 k-point ** :  0.45830.25000.0417  plane waves:   2245
 k-point ** :  0.50000.25000.0417  plane waves:   2250
 k-point ** :  0.29170.29170.0417  plane waves:   2255
 k-point ** :  0.33330.29170.0417  plane waves:   2255
 k-point ** :  0.37500.29170.0417  plane waves:   2253
 k-point ** :  0.41670.29170.0417  plane waves:   2251
 k-point ** :  0.45830.29170.0417  plane waves:   2247
 k-point ** :  0.50000.29170.0417  plane waves:   2252
 k-point ** :  0.33330.33330.0417  plane waves:   2254
 k-point ** :  0.37500.33330.0417  plane waves:   2251
 k-point ** :  0.41670.33330.0417  plane waves:   2249
 k-point ** :  0.45830.33330.0417  plane waves:   2251
 k-point ** :  0.50000.33330.0417  plane waves:   2256
[...]
 k-point ** :  0.45830.41670.3750  plane waves:   2266
 k-point ** :  0.50000.41670.3750  plane waves:   2268
 k-point ** :  0.45830.45830.3750  plane waves:   2277
 k-point ** :  0.50000.45830.3750  plane waves:   2276
 k-point ** :  0.50000.50000.3750  plane waves:   2280
 k-point ** :  0.41670.41670.4167  plane waves:   2269
 k-point ** :  0.45830.41670.4167  plane waves:   2274
 k-point ** :  0.50000.41670.4167  plane waves:   2272
 k-point ** :  0.45830.45830.4167  plane waves:   2282
 k-point ** :  0.50000.45830.4167  plane waves:   2284
 k-point ** :  0.50000.50000.4167  plane waves:   2292
 k-point ** :  0.45830.45830.4583  plane waves:   2281
 k-point ** :  0.50000.45830.4583  plane waves:   2284
 k-point ** :  0.50000.50000.4583  plane waves:   2272
 k-point ** :  0.50000.50000.5000  plane waves:   2272

 maximum and minimum number of plane-waves per node :   2301  2216

 maximum number of plane-waves:   2301
 maximal index in each direction:
   IXMAX=  8   IYMAX=  8   IZMAX=  8
   IXMIN= -8   IYMIN= -8   IZMIN= -8

 NGX is ok and might be reduce to  34
 NGY is ok and might be reduce to  34
 NGZ is ok and might be reduce to  34

 parallel 3dFFT wavefunction:
    minimum data exchange during FFTs selected (reduces bandwidth)
 parallel 3dFFT charge:
    minimum data exchange during FFTs selected (reduces bandwidth)

Broyden mixing: mesh for mixing (old mesh)
   NGX = 17   NGY = 17   NGZ = 17
  (NGX  = 72   NGY  = 72   NGZ  = 72)
 gives a total of   4913 points
 initial charge density was supplied:
 charge density of overlapping atoms calculated
 number of electron   44.0000000 magnetization
 keeping initial charge density in first step

 Maximum index for augmentation-charges        36099 (set IRDMAX)

 First call to EWALD:  gamma=   0.502
 Maximum number of real-space cells 3x 3x 3
 Maximum number of reciprocal cells 3x 3x 3

----------------------------------------- Iteration    1(   1)  ---------------------------------------

 eigenvalue-minimisations  : 30480
 total energy-change (2. order) : 0.3336654E+03  (-0.2723464E+04)
 number of electron   44.0000000 magnetization
 augmentation part    44.0000000 magnetization

 Free energy of the ion-electron system (eV)
  alpha Z        PSCENC =       465.63032587
  Ewald energy   TEWEN  =     -4529.01410852
  -1/2 Hartree   DENC   =     -1248.22485504
  -V(xc)+E(xc)   XCENC  =       176.47070909
  PAW double counting   =      4328.20916945    -4904.30802700
  entropy T*S    EENTRO =        -0.00002936
  eigenvalues    EBANDS =       480.98457557
  atomic energy  EATOM  =      5563.91759264
  free energy    TOTEN  =       333.66535268 eV

  energy without entropy =      333.66538204  energy(sigma->0) =      333.66536736

[...]

 eigenvalue-minimisations  : 29216
 total energy-change (2. order) :-0.3262000E+03  (-0.3082645E+03)
 number of electron   44.0000000 magnetization
 augmentation part    44.0000000 magnetization

[...]

 Broyden mixing:
  rms(total) = 0.14111E+01    rms(broyden)= 0.14111E+01
  rms(prec ) = 0.34083E+01
  weight for this iteration     100.00

[...]

 eigenvalues of (default mixing * dielectric matrix)
  average eigenvalue GAMMA=   0.7275
  0.7275

[...]

 eigenvalue-minimisations  : 17712
 total energy-change (2. order) : 0.1596163E-07  (-0.5299162E-10)
 number of electron   44.0000002 magnetization
 augmentation part    28.6824419 magnetization

 Broyden mixing:
  rms(total) = 0.35753E-05    rms(broyden)= 0.35753E-05
  rms(prec ) = 0.90468E-05
  weight for this iteration     100.00

 eigenvalues of (default mixing * dielectric matrix)
  average eigenvalue GAMMA=   1.6247
  2.9429  2.6528  2.6528  2.4798  0.6914  1.0388  1.0388  0.9612  0.9612  0.8278

[...]

----------------------------------------- Iteration    1(  16)  ---------------------------------------

 eigenvalue-minimisations  : 17000
 total energy-change (2. order) :-0.4828507E-08  (-0.5932869E-11)
 number of electron   44.0000002 magnetization
 augmentation part    28.6824419 magnetization

 Free energy of the ion-electron system (eV)
  alpha Z        PSCENC =       465.63032587
  Ewald energy   TEWEN  =     -4529.01410852
  -1/2 Hartree   DENC   =     -1157.64039310
  -V(xc)+E(xc)   XCENC  =       171.92723587
  PAW double counting   =      4443.36191477    -5024.06566500
  entropy T*S    EENTRO =        -0.00009775
  eigenvalues    EBANDS =        51.19906508
  atomic energy  EATOM  =      5563.91759264
  free energy    TOTEN  =       -14.68413014 eV

  energy without entropy =      -14.68403239  energy(sigma->0) =      -14.68408127

 average (electrostatic) potential at core
  the test charge radii are     1.0053
  (the norm of the test charge is              1.0000)
       1 -39.4528       2 -39.4528       3 -39.4528       4 -39.4528

 E-fermi :   4.4821     XC(G=0): -13.2362     alpha+bet :-10.3634
   add alpha+bet to get absolut eigen values

 k-point   1 :       0.0000    0.0000    0.0000
  band No.  band energies     occupation
      1      -5.4744      2.00000
      2      -0.9020      2.00000
      3      -0.9020      2.00000
      4      -0.9020      2.00000
      5      -0.4002      2.00000
      6      -0.4002      2.00000
      7      -0.4002      2.00000
      8       1.1590      2.00000
      9       1.1590      2.00000
     10       1.1590      2.00000
     11       2.0868      2.00000
     12       2.0868      2.00000
     13       2.7020      2.00000
     14       2.7020      2.00000
     15       2.7020      2.00000
     16       2.8750      2.00000
     17       2.8750      2.00000
     18       2.8750      2.00000
     19       2.8750      2.00000
     20       2.8750      2.00000
     21       2.8750      2.00000
     22       5.9080      0.00000
     23       5.9080      0.00000
     24       5.9080      0.00000
     25      12.0966      0.00000
     26      12.0966      0.00000
     27      12.0966      0.00000
     28      18.2221      0.00000
     29      18.2221      0.00000
     30      18.2221      0.00000
     31      18.2221      0.00000
     32      18.2221      0.00000

[...]

 k-point 455 :       0.5000    0.5000    0.5000
  band No.  band energies     occupation
      1      -1.0766      2.00000
      2      -1.0766      2.00000
      3      -1.0766      2.00000
      4      -1.0766      2.00000
      5       1.1233      2.00000
      6       1.1233      2.00000
      7       1.1233      2.00000
      8       1.1233      2.00000
      9       1.1233      2.00000
     10       1.1233      2.00000
     11       1.1233      2.00000
     12       1.1233      2.00000
     13       2.7178      2.00000
     14       2.7178      2.00000
     15       2.7178      2.00000
     16       2.7178      2.00000
     17       2.7178      2.00000
     18       2.7178      2.00000
     19       2.7178      2.00000
     20       2.7178      2.00000
     21       3.2323      2.00000
     22       3.2323      2.00000
     23       3.2323      2.00000
     24       3.2323      2.00000
     25       8.5837      0.00000
     26       8.5837      0.00000
     27       8.5837      0.00000
     28       8.5837      0.00000
     29      26.5392      0.00000
     30      26.5392      0.00000
     31      26.5392      0.00000
     32      26.5392      0.00000

 soft charge-density along one line, spin component           1
         0         1         2         3         4         5         6         7         8         9
 total charge-density along one line

------------------------ aborting loop because EDIFF is reached ----------------------------------------

  FREE ENERGIE OF THE ION-ELECTRON SYSTEM (eV)
  free  energy   TOTEN  =       -14.684130 eV

  energy  without entropy=      -14.684032  energy(sigma->0) =      -14.684081

  FORCE on cell =-STRESS in cart. coord.  units (eV/reduce length):
  Direction    X        Y        Z        XY       YZ       ZX
  Alpha Z    465.63    465.63    465.63
  Ewald    -1509.67  -1509.67  -1509.67     -0.00     -0.00     -0.00
  Hartree    385.88    385.88    385.88     -0.00     -0.00     -0.00
  E(xc)     -251.36   -251.36   -251.36      0.00     -0.00     -0.00
  Local      512.83    512.83    512.83      0.00      0.00     -0.00
  n-local   -137.92   -144.14   -145.47      0.40      1.83      0.64
  augment    226.36    226.36    226.36     -0.00     -0.00     -0.00
  Kinetic    325.22    316.21    310.08     -3.23     -0.24     -1.54
  Total        4.33      4.33      4.33      0.00     -0.00      0.00
  in kB      157.92    157.92    157.92      0.00     -0.00      0.00

 VOLUME and BASIS-vectors are now :
  energy-cutoff  :      800.00
  volume of cell :       43.90
      direct lattice vectors                 reciprocal lattice vectors
     3.527719498  0.000000000  0.000000000     0.283469250  0.000000000  0.000000000
     0.000000000  3.527719498  0.000000000     0.000000000  0.283469250  0.000000000
     0.000000000  0.000000000  3.527719498     0.000000000  0.000000000  0.283469250

  length of vectors
     3.527719498  3.527719498  3.527719498     0.283469250  0.283469250  0.283469250

 FORCES acting on ions
    electron-ion (+dipol)            ewald-force                    non-local-force                 convergence-correction
   -.407E-13 -.648E-13 -.111E-12   -.155E-14 -.183E-14 -.593E-14   0.103E-24 -.775E-25 0.258E-25   -.872E-14 -.600E-14 0.755E-14
   0.500E-12 0.347E-11 0.213E-11   -.342E-14 0.427E-14 -.615E-14   0.000E+00 -.258E-25 0.181E-24   -.138E-13 0.352E-13 -.364E-13
   0.502E-12 -.651E-13 0.727E-11   0.169E-13 -.483E-14 0.526E-14   0.905E-25 0.646E-25 -.103E-24   -.706E-14 0.101E-13 0.317E-15
   -.407E-13 0.476E-12 0.428E-12   -.864E-14 0.127E-14 0.504E-14   -.388E-25 -.420E-25 0.775E-25   -.182E-13 0.220E-13 0.129E-13
   0.920E-12 0.382E-11 0.972E-11   0.328E-14 -.111E-14 -.178E-14   0.155E-24 -.808E-25 0.181E-24   -.479E-13 0.612E-13 -.156E-13

 POSITION                                       TOTAL-FORCE (eV/Angst)
      0.00000      0.00000      0.00000        -0.000000      0.000000      0.000000
      1.76386      1.76386      0.00000         0.000000     -0.000000      0.000000
      1.76386      0.00000      1.76386         0.000000      0.000000      0.000000
      0.00000      1.76386      1.76386        -0.000000     -0.000000      0.000000
    total drift:                                0.000000      0.000000      0.000000

 mean value of Nose-termostat <S>:     1.000 mean value of <T> :     0.000
 mean temperature <T/S>/<1/S>  :     0.000