 vasp.4.6.28 25Jul05 complex
 executed on             LinuxIFC date 2017.01.06  19:19:00

 INCAR:
 POTCAR:   PAW_PBE Al 04Jan2001
 POTCAR:   PAW_PBE Al 04Jan2001
   VRHFIN =Al: s2p1

   TITEL  = PAW_PBE Al 04Jan2001
   POMASS =   26.982; ZVAL   =    3.000    mass and valenz
   ENMAX  =  240.300; ENMIN  =  180.225 eV
   QCUT   =   -4.203; QGAM   =    8.405    optimization parameters

   Description
     l     E      TYP  RCUT    TYP  RCUT
     0   .000     23  1.900
     0   .000     23  1.900
     1   .000     23  1.900
     1  1.000     23  1.900
     2   .000      7  1.900

 PAW_PBE Al 04Jan2001                   :

 POSCAR: al100
  positions in direct lattice

 ion  position               nearest neighbor table
   1  0.750  0.750  0.500-   3 3.00  20 3.00  14 3.00  19 3.00   5 3.00  26 3.00  11 3.00   6 3.00
                            18 3.00  29 3.00  10 3.00   8 3.00
   2  0.750  0.750  0.000-  12 2.98  10 3.00   8 3.00  11 3.00  18 3.00  22 3.00  27 3.00  26 3.00
                             5 3.00  32 3.00   3 3.00  20 3.00
   3  0.750  0.000  0.250-  12 2.98   9 3.00   1 3.00   5 3.00  19 3.00  28 3.00  18 3.00   6 3.00
                            27 3.00  13 3.00   4 3.00   2 3.00
   4  0.750  0.250  0.500-   8 3.00  10 3.00   6 3.00  13 3.00  29 3.00  31 3.00  21 3.00  28 3.00
                            14 3.00  19 3.00   3 3.00  20 3.00
   5  0.000  0.750  0.250-  14 3.00   3 3.00   1 3.00  15 3.00  25 3.00   2 3.00   7 3.00  16 3.00
                            10 3.00  22 3.00   6 3.00  12 3.00
   6  0.000  0.000  0.500-  11 3.00  13 3.00   8 3.00   4 3.00   7 3.00  16 3.00   1 3.00   3 3.00
                            17 3.00  23 3.00  21 3.00   5 3.00
   7  0.250  0.750  0.500-  16 3.00  30 3.00   6 3.00  18 3.00  29 3.00  11 3.00  19 3.00  26 3.00
                             5 3.00  14 3.00  25 3.00  23 3.00
   8  0.750  0.000  0.750-  12 2.98   4 3.00   2 3.00  11 3.00   6 3.00  27 3.00  31 3.00  26 3.00
                            19 3.00  21 3.00   9 3.00   1 3.00
   9  0.750  0.250  0.000-  12 2.98   3 3.00  20 3.00  21 3.00  28 3.00  32 3.00  27 3.00  13 3.00
                            31 3.00  22 3.00  10 3.00   8 3.00
  10  0.750  0.500  0.250-   2 3.00   4 3.00  13 3.00  18 3.00  22 3.00  29 3.00  14 3.00  28 3.00
                             5 3.00  32 3.00   9 3.00   1 3.00
  11  0.000  0.750  0.750-   6 3.00  22 3.00   7 3.00   8 3.00   2 3.00  30 3.00  20 3.00   1 3.00
                            23 3.00  15 3.00  14 3.00  12 3.00
  12  0.998  0.000  0.000-   3 2.98   9 2.98   8 2.98   2 2.98   5 3.00  21 3.00  11 3.00  13 3.00
                            15 3.01  23 3.01  24 3.01  16 3.01
  13  0.000  0.250  0.250-   6 3.00  22 3.00  10 3.00  16 3.00   4 3.00  24 3.00  17 3.00   3 3.00
                             9 3.00  25 3.00  14 3.00  12 3.00
  14  0.000  0.500  0.500-   5 3.00  21 3.00  17 3.00  20 3.00   1 3.00  25 3.00   7 3.00  10 3.00
                             4 3.00  30 3.00  13 3.00  11 3.00
  15  0.250  0.750  0.000-  23 3.00  25 3.00   5 3.00  26 3.00  32 3.00  18 3.00  22 3.00  27 3.00
                            11 3.00  30 3.00  16 3.00  12 3.01
  16  0.250  0.000  0.250-   7 3.00  24 3.00  13 3.00  18 3.00   6 3.00  27 3.00   5 3.00  19 3.00
                            28 3.00  17 3.00  15 3.00  12 3.01
  17  0.250  0.250  0.500-  23 3.00  25 3.00  21 3.00  14 3.00  19 3.00  28 3.00   6 3.00  13 3.00
                            29 3.00  31 3.00  30 3.00  16 3.00
  18  0.500  0.750  0.250-  27 3.00  29 3.00  10 3.00  16 3.00   2 3.00   7 3.00   1 3.00  25 3.00
                             3 3.00  15 3.00  19 3.00  32 3.00
  19  0.500  0.000  0.500-  26 3.00  28 3.00  17 3.00  23 3.00   1 3.00   3 3.00   4 3.00   7 3.00
                             8 3.00  16 3.00  18 3.00  31 3.00
  20  0.750  0.500  0.750-   1 3.00   9 3.00  14 3.00  21 3.00  26 3.00  32 3.00  11 3.00  29 3.00
                            31 3.00  22 3.00   4 3.00   2 3.00
  21  0.000  0.250  0.750-  14 3.00   9 3.00  17 3.00  20 3.00  23 3.00   8 3.00   4 3.00  24 3.00
                            30 3.00  22 3.00   6 3.00  12 3.00
  22  0.000  0.500  0.000-  11 3.00  13 3.00   2 3.00  10 3.00  24 3.00  30 3.00  20 3.00   9 3.00
                            25 3.00  15 3.00  21 3.00   5 3.00
  23  0.250  0.000  0.750-  15 3.00  17 3.00  19 3.00  21 3.00  26 3.00  11 3.00   6 3.00  27 3.00
                            31 3.00  24 3.00   7 3.00  12 3.01
  24  0.250  0.250  0.000-  16 3.00  30 3.00  22 3.00  27 3.00  13 3.00  31 3.00  21 3.00  28 3.00
                            32 3.00  25 3.00  23 3.00  12 3.01
  25  0.250  0.500  0.250-  15 3.00  17 3.00   5 3.00  14 3.00  28 3.00  32 3.00  22 3.00  13 3.00
                            29 3.00  18 3.00  24 3.00   7 3.00
  26  0.500  0.750  0.750-  19 3.00  32 3.00   1 3.00  20 3.00  23 3.00  15 3.00   8 3.00   2 3.00
                            30 3.00   7 3.00  27 3.00  29 3.00
  27  0.500  0.000  0.000-  18 3.00  31 3.00  16 3.00   2 3.00  24 3.00   8 3.00   9 3.00  23 3.00
                            15 3.00   3 3.00  28 3.00  26 3.00
  28  0.500  0.250  0.250-  19 3.00  32 3.00  17 3.00   3 3.00  25 3.00   9 3.00  10 3.00  24 3.00
                            16 3.00   4 3.00  29 3.00  27 3.00
  29  0.500  0.500  0.500-  18 3.00  31 3.00  10 3.00   4 3.00  30 3.00   7 3.00  20 3.00  25 3.00
                            17 3.00   1 3.00  26 3.00  28 3.00
  30  0.250  0.500  0.750-   7 3.00  24 3.00  22 3.00  11 3.00  29 3.00  31 3.00  26 3.00  14 3.00
                            21 3.00  32 3.00  17 3.00  15 3.00
  31  0.500  0.250  0.750-  27 3.00  29 3.00  24 3.00   4 3.00   8 3.00  30 3.00   9 3.00  17 3.00
                            20 3.00  23 3.00  19 3.00  32 3.00
  32  0.500  0.500  0.000-  26 3.00  28 3.00  20 3.00  25 3.00   9 3.00  15 3.00   2 3.00  10 3.00
                            24 3.00  30 3.00  18 3.00  31 3.00

  LATTYP: Found a simple cubic cell.
 ALAT       =     8.4783426200

  Lattice vectors:

 A1 = (   8.4783426200,   0.0000000000,   0.0000000000)
 A2 = (   0.0000001600,   8.4783426200,   0.0000000000)
 A3 = (   0.0000001600,   0.0000001600,   8.4783426200)
 Subroutine PRICEL returns:
 Original cell was already a primitive cell.

Analysis of symmetry for initial positions (statically):

 Routine SETGRP: Setting up the symmetry group for a
 simple cubic supercell.

 Subroutine GETGRP returns: Found  8 space group operations
 (whereof  8 operations were pure point group operations)
 out of a pool of 48 trial point group operations.

The static configuration has the point symmetry C_4v.

Analysis of symmetry for dynamics (positions and initial velocities):

 Subroutine DYNSYM returns: Found  8 space group operations
 (whereof  8 operations were pure point group operations)
 out of a pool of  8 trial space group operations
 (whereof  8 operations were pure point group operations)
 and found also     1 'primitive' translations

The dynamic configuration has the point symmetry C_4v.

 KPOINTS: Automatic mesh

Automatic generation of k-mesh.

 Subroutine IBZKPT returns following result:

 Found      6 irreducible k-points:

 Following reciprocal coordinates:
            Coordinates               Weight
  0.000000  0.000000  0.000000      1.000000
  0.333333 -0.000000 -0.000000      2.000000
  0.000000  0.333333 -0.000000      4.000000
  0.333333  0.333333  0.000000      8.000000
  0.000000  0.333333  0.333333      4.000000
  0.333333  0.333333  0.333333      8.000000

 Following cartesian coordinates:
            Coordinates               Weight
  0.000000  0.000000  0.000000      1.000000
  0.039316 -0.000000 -0.000000      2.000000
  0.000000  0.039316 -0.000000      4.000000
  0.039316  0.039316 -0.000000      8.000000
  0.000000  0.039316  0.039316      4.000000
  0.039316  0.039316  0.039316      8.000000

 I would recommend the setting:
   dimension x,y,z NGX =    68 NGY =   68 NGZ =   68
 SYSTEM =  al100
 POSCAR =  al100

 Startparameter for this run:
   NWRITE =      2    write-flag & timer
   PREC   = accura    medium, high low
   ISTART =      1    job   : 0-new  1-cont  2-samecut
   ICHARG =      0    charge: 1-file 2-atom 10-const
   ISPIN  =      1    spin polarized calculation?
   LNONCOLLINEAR =      F non collinear calculations
   LSORBIT =      F    spin-orbit coupling
   INIWAV =      1    electr: 0-lowe 1-rand  2-diag
   LASPH  =      F    aspherical Exc in radial PAW
   METAGGA=      F    non-selfconsistent MetaGGA calc.

 Electronic Relaxation 1
   ENCUT  =  600.0 eV  44.10 Ry    6.64 a.u.  16.93 16.93 16.93*2*pi/ulx,y,z
   ENINI  =  600.0     initial cutoff
   ENAUG  =  291.1 eV  augmentation charge cutoff
   NELM   =     60;   NELMIN=  2; NELMDL=  0     # of ELM steps
   EDIFF  = 0.1E-04   stopping-criterion for ELM
   LREAL  =      F    real-space projection
   LCOMPAT=      F    compatible to vasp.4.4
   LREAL_COMPAT= F    compatible to vasp.4.5.1-3
   GGA_COMPAT  = T    GGA compatible to vasp.4.4-vasp.4.6
   LMAXPAW     = -100 max onsite density
   LMAXMIX     =    2 max onsite mixed and CHGCAR
   VOSKOWN=      1    Vosko Wilk Nusair interpolation
   ROPT   =    0.00000
 Ionic relaxation
   EDIFFG = -.2E-01   stopping-criterion for IOM
   NSW    =      0    number of steps for IOM
   NBLOCK =      1;   KBLOCK =      1    inner block; outer block
   IBRION =     -1    ionic relax: 0-MD 1-quasi-New 2-CG
   NFREE  =      0    steps in history (QN), initial steepest desc. (CG)
   ISIF   =      2    stress and relaxation
   IWAVPR =     10    prediction:  0-non 1-charg 2-wave 3-comb
   ISYM   =      2    0-nonsym 1-usesym 2-fastsym
   LCORR  =      T    Harris-Foulkes like correction to forces

   POTIM  =   0.50    time-step for ionic-motion
   TEIN   =    0.0    initial temperature
   TEBEG  =    0.0;   TEEND  =   0.0 temperature during run
   SMASS  =  -3.00    Nose mass-parameter (am)
   estimated Nose-frequenzy (Omega)   =  0.10E-29 period in steps =****** mass=  -0.164E-26a.u.
   NPACO  =    256;   APACO  = 16.0  distance and # of slots for P.C.
   PSTRESS=    0.0 pullay stress

  Mass of Ions in am
   POMASS =  26.98
  Ionic Valenz
   ZVAL   =   3.00
  Atomic Wigner-Seitz radii
   NELECT =      96.0000    total number of electrons
   NUPDOWN=      -1.0000    fix difference up-down

 DOS related values:
   EMIN   =  10.00;   EMAX   =-10.00  energy-range for DOS
   ISMEAR =     1;   SIGMA  =   0.20  broadening in eV -4-tet -1-fermi 0-gaus

 Electronic relaxation 2 (details)
   IALGO  =     38    algorithm
   LDIAG  =      T    sub-space diagonalisation
   IMIX   =      4    mixing-type and parameters
     AMIX     =   0.40;   BMIX     =  1.00
     AMIX_MAG =   1.60;   BMIX_MAG =  1.00
     AMIN     =   0.10
     WC   =   100.;   INIMIX=   1;  MIXPRE=   1

 Intra band minimization:
   WEIMIN = 0.0000     energy-eigenvalue tresh-hold
   EBREAK =  0.38E-07  absolut break condition
   DEPER  =   0.30     relativ break condition

   TIME   =   0.10     timestep for ELM

  volume/ion in A,a.u.               =      19.05       128.52
  Fermi-wavevector in a.u.,eV,Ry     =   0.884140 10.635718  0.781703

 Second variation
   LSECVAR=     F    do a second variation

 Write flags
[...]
  PAW double counting   =      1130.19088884     -107.44860447
  entropy T*S    EENTRO =        -0.02758661
  eigenvalues    EBANDS =       242.11972812
  atomic energy  EATOM  =      1713.23359074
  free energy    TOTEN  =      -118.12233512 eV

  energy without entropy =     -118.09474851  energy(sigma->0) =     -118.11313958

[...]

 eigenvalues of (default mixing * dielectric matrix)
  average eigenvalue GAMMA=   1.2342
  1.2342

[...]

 eigenvalue-minimisations  :   936
 total energy-change (2. order) :-0.1152054E-02  (-0.2425040E-02)
 number of electron   96.0000000 magnetization
 augmentation part    -1.3534772 magnetization

[...]

 eigenvalue-minimisations  :   972
 total energy-change (2. order) : 0.1041864E-03  ( 0.4503250E-05)
 number of electron   96.0000000 magnetization
 augmentation part    -1.3534550 magnetization

 Broyden mixing:
  rms(total) = 0.19027E-02    rms(broyden)= 0.19027E-02
  rms(prec ) = 0.31096E-02
  weight for this iteration     100.00

 eigenvalues of (default mixing * dielectric matrix)
  average eigenvalue GAMMA=   1.4166
  1.0455  1.0455  2.1590

[...]

----------------------------------------- Iteration    1(   5)  ---------------------------------------

 eigenvalue-minimisations  :   964
 total energy-change (2. order) : 0.5989840E-05  (-0.5397541E-05)
 number of electron   96.0000000 magnetization
 augmentation part    -1.3534550 magnetization

 Free energy of the ion-electron system (eV)
  alpha Z        PSCENC =        -5.64355503
  Ewald energy   TEWEN  =     -2242.65699479
  -1/2 Hartree   DENC   =        -3.34706788
  -V(xc)+E(xc)   XCENC  =      -845.18479004
  PAW double counting   =      1130.16861844     -107.41119524
  entropy T*S    EENTRO =        -0.02398348
  eigenvalues    EBANDS =       242.59617819
  atomic energy  EATOM  =      1713.23359074
  free energy    TOTEN  =      -118.26919909 eV

  energy without entropy =     -118.24521561  energy(sigma->0) =     -118.26120460

 average (electrostatic) potential at core
  the test charge radii are     1.0406
  (the norm of the test charge is              1.0000)
       1 -74.2403       2 -74.2380       3 -74.2380       4 -74.2403       5 -74.2401
       6 -74.2401       7 -74.2399       8 -74.2380       9 -74.2380      10 -74.2403
      11 -74.2401      12 -74.2400      13 -74.2401      14 -74.2400      15 -74.2422
      16 -74.2422      17 -74.2399      18 -74.2401      19 -74.2401      20 -74.2403
      21 -74.2401      22 -74.2401      23 -74.2422      24 -74.2422      25 -74.2399
      26 -74.2401      27 -74.2400      28 -74.2401      29 -74.2402      30 -74.2399
      31 -74.2401      32 -74.2401

 E-fermi :   6.4236     XC(G=0):  -9.6883     alpha+bet :-12.8884
   add alpha+bet to get absolut eigen values

 k-point   1 :       0.0000    0.0000    0.0000
  band No.  band energies     occupation
      1      -3.5984      2.00000
      2      -1.5588      2.00000
      3      -1.5522      2.00000
      4      -1.5522      2.00000
      5      -1.5521      2.00000
      6      -1.5521      2.00000
      7      -1.5456      2.00000
      8       0.4563      2.00000
      9       0.4650      2.00000
     10       0.4650      2.00000
     11       0.4678      2.00000
     12       0.4681      2.00000
     13       0.4681      2.00000
     14       0.4681      2.00000
     15       0.4681      2.00000
     16       0.4684      2.00000
     17       0.4711      2.00000
     18       0.4711      2.00000
     19       0.4798      2.00000
     20       2.3828      2.00000
     21       2.3828      2.00000
     22       2.3828      2.00000
     23       2.3829      2.00000
     24       2.5471      2.00000
     25       2.5472      2.00000
     26       2.5472      2.00000
     27       2.5472      2.00000
     28       4.0040      2.00000
     29       4.0040      2.00000
     30       4.0041      2.00000
     31       4.9680      2.00000
     32       4.9681      2.00000
     33       4.9681      2.00000
     34       5.9100      2.00170
     35       5.9100      2.00170
     36       5.9180      2.00204
     37       5.9180      2.00204
     38       5.9180      2.00204
     39       5.9180      2.00204
     40       5.9180      2.00204
     41       5.9180      2.00204
     42       5.9180      2.00204
     43       5.9181      2.00205
     44       5.9259      2.00244
     45       5.9259      2.00244
     46       6.9380     -0.00167
     47       6.9394     -0.00161
     48       6.9395     -0.00161
     49       6.9395     -0.00161
     50       6.9396     -0.00161
     51       6.9408     -0.00156
     52       6.9808     -0.00059
     53       6.9881     -0.00049
     54       6.9882     -0.00049
     55       6.9882     -0.00049
     56       6.9884     -0.00048
     57       6.9954     -0.00040
     58       7.8251     -0.00000
     59       7.8264     -0.00000
     60       7.8295     -0.00000
     61       7.8327     -0.00000
     62       7.8328     -0.00000
     63       7.8328     -0.00000
     64       7.8329     -0.00000
     65       7.8330     -0.00000
     66       7.8349     -0.00000
     67       7.8377     -0.00000
     68       7.8404     -0.00000

[...]

 k-point   6 :       0.3333    0.3333    0.3333
  band No.  band energies     occupation
      1      -2.9135      2.00000
      2      -2.2344      2.00000
      3      -2.2315      2.00000
      4      -2.2286      2.00000
      5      -1.5554      2.00000
      6      -1.5525      2.00000
      7      -1.5496      2.00000
      8      -0.8764      2.00000
      9       0.4643      2.00000
     10       0.4673      2.00000
     11       0.4701      2.00000
     12       1.1297      2.00000
     13       1.1330      2.00000
     14       1.1349      2.00000
     15       1.1349      2.00000
     16       1.1367      2.00000
     17       1.1401      2.00000
     18       1.7976      2.00000
     19       1.7991      2.00000
     20       1.8007      2.00000
     21       2.4503      2.00000
     22       2.4517      2.00000
     23       2.4533      2.00000
     24       3.1052      2.00000
     25       3.1084      2.00000
     26       3.1104      2.00000
     27       3.1104      2.00000
     28       3.1124      2.00000
     29       3.1156      2.00000
     30       3.7225      2.00000
     31       3.7255      2.00000
     32       3.7286      2.00000
     33       3.8187      2.00000
     34       3.8215      2.00000
     35       3.8244      2.00000
     36       4.4349      2.00000
     37       4.4365      2.00000
     38       4.4380      2.00000
     39       5.7191      2.00001
     40       5.7199      2.00001
     41       5.7221      2.00001
     42       5.7221      2.00001
     43       5.7243      2.00001
     44       5.7250      2.00001
     45       6.3668      1.45922
     46       6.3677      1.45266
     47       6.3699      1.43648
     48       6.3699      1.43645
     49       6.3721      1.41990
     50       6.3730      1.41314
     51       7.0308     -0.00015
     52       7.6386     -0.00000
     53       7.6402     -0.00000
     54       7.6418     -0.00000
     55       7.7935     -0.00000
     56       7.7951     -0.00000
     57       7.7967     -0.00000
     58       8.2785     -0.00000
     59       8.2816     -0.00000
     60       8.2846     -0.00000
     61       8.4358     -0.00000
     62       8.4358     -0.00000
     63       8.4383     -0.00000
     64       8.4384     -0.00000
     65       8.4408     -0.00000
     66       8.4409     -0.00000
     67       8.9349     -0.00000
     68       8.9361     -0.00000

 soft charge-density along one line, spin component           1
         0         1         2         3         4         5         6         7         8         9
 total charge-density along one line

------------------------ aborting loop because EDIFF is reached ----------------------------------------

  FREE ENERGIE OF THE ION-ELECTRON SYSTEM (eV)
  free  energy   TOTEN  =      -118.269199 eV

  energy  without entropy=     -118.245216  energy(sigma->0) =     -118.261205

  FORCE on cell =-STRESS in cart. coord.  units (eV/reduce length):
  Direction    X        Y        Z        XY       YZ       ZX
  Alpha Z     -5.64     -5.64     -5.64
  Ewald     -747.56   -747.55   -747.55     -0.00     -0.00     -0.00
  Hartree      1.11      1.12      1.12      0.00      0.00      0.00
  E(xc)     -262.63   -262.63   -262.63      0.00      0.00      0.00
  Local      -10.28    -10.30    -10.30      0.00      0.00      0.00
  n-local    591.23    592.50    589.96      0.12      0.25      0.39
  augment    -36.18    -36.18    -36.18      0.00      0.00      0.00
  Kinetic    438.92    428.08    449.76     -5.42     -7.48     -9.53
  Total      -31.03    -31.03    -31.03     -0.00     -0.00     -0.00
  in kB      -81.57    -81.57    -81.57     -0.00     -0.00     -0.00

 VOLUME and BASIS-vectors are now :
  energy-cutoff  :      600.00
  volume of cell :      609.44
      direct lattice vectors                 reciprocal lattice vectors
     8.478342620  0.000000000  0.000000000     0.117947581 -0.000000002 -0.000000002
     0.000000160  8.478342620  0.000000000     0.000000000  0.117947581 -0.000000002
     0.000000160  0.000000160  8.478342620     0.000000000  0.000000000  0.117947581

  length of vectors
     8.478342620  8.478342620  8.478342620     0.117947581  0.117947581  0.117947581

 FORCES acting on ions
    electron-ion (+dipol)            ewald-force                    non-local-force                 convergence-correction
   0.211E-03 0.124E-01 -.924E-09   -.203E-02 -.111E-01 0.116E-08   0.816E-03 -.326E-03 0.120E-19   0.322E-04 -.998E-04 0.238E-10
   0.786E-01 0.144E+00 -.168E-08   -.698E-01 -.135E+00 0.220E-10   -.184E-01 -.186E-01 -.317E-19   0.778E-03 0.218E-02 -.995E-10
   0.786E-01 -.230E-08 -.144E+00   -.698E-01 0.253E-08 0.135E+00   -.184E-01 0.351E-09 0.186E-01   0.778E-03 0.197E-10 -.218E-02
   0.211E-03 -.124E-01 0.649E-09   -.203E-02 0.111E-01 -.677E-09   0.816E-03 0.326E-03 0.471E-20   0.322E-04 0.998E-04 -.282E-10
   -.790E-01 -.715E-03 0.715E-03   0.871E-01 0.646E-03 -.646E-03   -.194E-02 0.116E-03 -.116E-03   -.253E-02 -.342E-04 0.342E-04
   -.479E-01 0.207E-09 0.286E-08   0.462E-01 -.128E-09 -.345E-08   0.323E-02 0.940E-19 0.670E-20   -.149E-02 0.114E-09 -.108E-09
   0.436E-03 -.125E-01 0.629E-09   -.245E-02 0.110E-01 -.649E-09   0.811E-03 0.360E-03 -.486E-19   0.234E-03 0.166E-03 -.319E-10
   0.786E-01 0.104E-08 0.144E+00   -.698E-01 -.253E-08 -.135E+00   -.184E-01 -.351E-09 -.186E-01   0.778E-03 -.583E-10 0.218E-02
   0.786E-01 -.144E+00 0.407E-09   -.698E-01 0.135E+00 -.220E-10   -.184E-01 0.186E-01 -.121E-19   0.778E-03 -.218E-02 0.609E-10
   0.211E-03 0.415E-09 -.124E-01   -.203E-02 -.468E-09 0.111E-01   0.816E-03 0.615E-11 0.326E-03   0.322E-04 -.263E-10 0.998E-04
   -.790E-01 -.715E-03 -.715E-03   0.871E-01 0.646E-03 0.646E-03   -.194E-02 0.116E-03 0.116E-03   -.253E-02 -.342E-04 -.342E-04
   -.653E+00 0.966E-08 0.189E-07   0.552E+00 -.992E-08 -.992E-08   0.158E+00 0.278E-19 -.161E-19   -.651E-02 0.317E-09 0.317E-09
   -.790E-01 0.715E-03 0.715E-03   0.871E-01 -.646E-03 -.646E-03   -.194E-02 -.116E-03 -.116E-03   -.253E-02 0.342E-04 0.342E-04
   -.153E-01 0.768E-09 0.770E-09   0.190E-01 -.917E-09 -.917E-09   -.115E-02 -.993E-19 -.109E-19   -.132E-02 -.628E-10 -.628E-10
   0.788E-01 -.141E+00 0.388E-09   -.707E-01 0.133E+00 -.198E-10   -.176E-01 0.174E-01 0.261E-19   0.111E-02 -.221E-02 0.541E-10
   0.788E-01 0.102E-08 0.141E+00   -.707E-01 -.249E-08 -.133E+00   -.176E-01 -.329E-09 -.174E-01   0.111E-02 -.652E-10 0.221E-02
   0.436E-03 0.125E-01 -.938E-09   -.245E-02 -.110E-01 0.118E-08   0.811E-03 -.360E-03 0.154E-19   0.234E-03 -.166E-03 0.209E-10
   0.532E-01 0.241E-03 -.241E-03   -.490E-01 -.193E-03 0.193E-03   -.316E-02 -.776E-04 0.776E-04   0.136E-02 0.300E-04 -.300E-04
   0.343E-01 -.181E-09 -.182E-08   -.362E-01 0.127E-09 0.218E-08   0.123E-02 0.123E-18 -.394E-20   0.675E-03 -.103E-09 0.125E-09
   0.211E-03 -.691E-09 0.124E-01   -.203E-02 0.949E-09 -.111E-01   0.816E-03 -.615E-11 -.326E-03   0.322E-04 0.219E-10 -.998E-04
   -.790E-01 0.715E-03 -.715E-03   0.871E-01 -.646E-03 0.646E-03   -.194E-02 -.116E-03 0.116E-03   -.253E-02 0.342E-04 -.342E-04
   -.479E-01 0.284E-08 0.209E-09   0.462E-01 -.345E-08 -.128E-09   0.323E-02 0.228E-20 0.426E-20   -.149E-02 -.108E-09 0.114E-09
   0.788E-01 -.226E-08 -.141E+00   -.707E-01 0.249E-08 0.133E+00   -.176E-01 0.329E-09 0.174E-01   0.111E-02 0.123E-10 -.221E-02
   0.788E-01 0.141E+00 -.164E-08   -.707E-01 -.133E+00 0.242E-10   -.176E-01 -.174E-01 -.278E-19   0.111E-02 0.221E-02 -.107E-09
   0.436E-03 -.703E-09 0.125E-01   -.245E-02 0.969E-09 -.110E-01   0.811E-03 -.679E-11 -.360E-03   0.234E-03 0.178E-10 -.166E-03
   0.532E-01 0.241E-03 0.241E-03   -.490E-01 -.193E-03 -.193E-03   -.316E-02 -.776E-04 -.776E-04   0.136E-02 0.300E-04 0.300E-04
   0.149E+00 -.953E-09 -.238E-08   -.146E+00 0.170E-09 0.170E-09   -.788E-02 -.112E-18 0.975E-20   0.412E-02 -.226E-09 -.226E-09
   0.532E-01 -.241E-03 -.241E-03   -.490E-01 0.193E-03 0.193E-03   -.316E-02 0.776E-04 0.776E-04   0.136E-02 -.300E-04 -.300E-04
   0.158E-01 -.768E-09 -.767E-09   -.178E-01 0.808E-09 0.808E-09   0.154E-02 -.245E-19 0.374E-20   0.135E-02 0.601E-10 0.601E-10
   0.436E-03 0.393E-09 -.125E-01   -.245E-02 -.441E-09 0.110E-01   0.811E-03 0.679E-11 0.360E-03   0.234E-03 -.288E-10 0.166E-03
   0.532E-01 -.241E-03 0.241E-03   -.490E-01 0.193E-03 -.193E-03   -.316E-02 0.776E-04 -.776E-04   0.136E-02 -.300E-04 0.300E-04
   0.343E-01 -.184E-08 -.178E-09   -.362E-01 0.218E-08 0.127E-09   0.123E-02 -.121E-19 -.522E-19   0.675E-03 0.125E-09 -.103E-09
   -.169E-02 0.109E-10 0.790E-08   -.246E-14 -.414E-13 0.106E-13   0.192E-02 -.416E-17 -.134E-17   -.654E-04 0.216E-10 0.216E-10

 POSITION                                       TOTAL-FORCE (eV/Angst)
      6.35876      6.35876      4.23917        -0.000977      0.000872     -0.000000
      6.35876      6.35876      0.00000        -0.008814     -0.007856     -0.000000
      6.35876      0.00000      2.11959        -0.008814      0.000000      0.007856
      6.35876      2.11959      4.23917        -0.000977     -0.000872      0.000000
      0.00000      6.35876      2.11959         0.003572      0.000012     -0.000012
      0.00000      0.00000      4.23917         0.000007     -0.000000      0.000000
      2.11959      6.35876      4.23917        -0.000973     -0.000935     -0.000000
      6.35876      0.00000      6.35876        -0.008814     -0.000000     -0.007856
      6.35876      2.11959      0.00000        -0.008814      0.007856     -0.000000
      6.35876      4.23917      2.11959        -0.000977     -0.000000     -0.000872
      0.00000      6.35876      6.35876         0.003572      0.000012      0.000012
      8.45834      0.00000      0.00000         0.051214     -0.000000      0.000000
      0.00000      2.11959      2.11959         0.003572     -0.000012     -0.000012
      0.00000      4.23917      4.23917         0.001293      0.000000      0.000000
      2.11959      6.35876      0.00000        -0.008407      0.007305     -0.000000
      2.11959      0.00000      2.11959        -0.008407     -0.000000     -0.007305
      2.11959      2.11959      4.23917        -0.000973      0.000935      0.000000
      4.23917      6.35876      2.11959         0.002467     -0.000001      0.000001
      4.23917      0.00000      4.23917        -0.000051     -0.000000     -0.000000
      6.35876      4.23917      6.35876        -0.000977      0.000000      0.000872
      0.00000      2.11959      6.35876         0.003572     -0.000012      0.000012
      0.00000      4.23917      0.00000         0.000007     -0.000000      0.000000
      2.11959      0.00000      6.35876        -0.008407      0.000000      0.007305
      2.11959      2.11959      0.00000        -0.008407     -0.007305     -0.000000
      2.11959      4.23917      2.11959        -0.000973      0.000000      0.000935
      4.23917      6.35876      6.35876         0.002467     -0.000001     -0.000001
      4.23917      0.00000      0.00000        -0.000785      0.000000     -0.000000
      4.23917      2.11959      2.11959         0.002467      0.000001      0.000001
      4.23917      4.23917      4.23917         0.000890     -0.000000     -0.000000
      2.11959      4.23917      6.35876        -0.000973     -0.000000     -0.000935
      4.23917      2.11959      6.35876         0.002467      0.000001     -0.000001
      4.23917      4.23917      0.00000        -0.000051      0.000000     -0.000000
    total drift:                                0.000159      0.000000      0.000000

 mean value of Nose-termostat <S>:     1.000 mean value of <T> :     0.000
 mean temperature <T/S>/<1/S>  :     0.000