 vasp.4.6.28 25Jul05 complex
 executed on             LinuxIFC date 2016.12.21  13:11:37

 INCAR:
 POTCAR:   PAW_PBE Ag 06Sep2000
 POTCAR:   PAW_PBE Ag 06Sep2000
   VRHFIN =Ag : s1 d10

   TITEL  = PAW_PBE Ag 06Sep2000
   POMASS =  107.868; ZVAL   =   11.000    mass and valenz
   ENMAX  =  249.846; ENMIN  =  187.385 eV
   QCUT   =   -4.285; QGAM   =    8.570    optimization parameters

   Description
     l     E      TYP  RCUT    TYP  RCUT
     2   .000     23  2.400
     2   .000     23  2.400
     0   .000     23  2.400
     0   .000     23  2.400
     1  -.200     23  2.400
     1  1.500     23  2.400
     3   .000      7   .000

 PAW_PBE Ag 06Sep2000                   :

 POSCAR: Ag
  positions in direct lattice

 ion  position               nearest neighbor table
   1  0.000  0.000  0.000-   2 2.90   3 2.90   4 2.90   3 2.90   4 2.90   2 2.90   4 2.90   4 2.90
                             2 2.90   3 2.90   3 2.90   2 2.90
   2  0.500  0.500  0.000-   1 2.90   3 2.90   4 2.90   3 2.90   4 2.90   1 2.90   3 2.90   3 2.90
                             1 2.90   4 2.90   4 2.90   1 2.90
   3  0.500  0.000  0.500-   1 2.90   2 2.90   4 2.90   1 2.90   2 2.90   2 2.90   4 2.90   2 2.90
                             1 2.90   4 2.90   1 2.90   4 2.90
   4  0.000  0.500  0.500-   1 2.90   2 2.90   3 2.90   1 2.90   2 2.90   1 2.90   3 2.90   1 2.90
                             2 2.90   3 2.90   2 2.90   3 2.90

  LATTYP: Found a simple cubic cell.
 ALAT       =     4.1023071000

  Lattice vectors:

 A1 = (   4.1023071000,   0.0000000000,   0.0000000000)
 A2 = (   0.0000000000,   4.1023071000,   0.0000000000)
 A3 = (   0.0000000000,   0.0000000000,   4.1023071000)
 Subroutine PRICEL returns following result:

  LATTYP: Found a face centered cubic cell.
 ALAT       =     4.1023071000

  Lattice vectors:

 A1 = (   2.0511535500,   2.0511535500,   0.0000000000)
 A2 = (   2.0511535500,   0.0000000000,  -2.0511535500)
 A3 = (   0.0000000000,   2.0511535500,  -2.0511535500)

   4 primitive cells build up your supercell.

Analysis of symmetry for initial positions (statically):

 Routine SETGRP: Setting up the symmetry group for a
 simple cubic supercell.

 Subroutine GETGRP returns: Found 48 space group operations
 (whereof 48 operations were pure point group operations)
 out of a pool of 48 trial point group operations.

The static configuration has the point symmetry O_h .

Analysis of symmetry for dynamics (positions and initial velocities):

 Subroutine DYNSYM returns: Found 48 space group operations
 (whereof 48 operations were pure point group operations)
 out of a pool of 48 trial space group operations
 (whereof 48 operations were pure point group operations)
 and found also     4 'primitive' translations

The dynamic configuration has the point symmetry O_h .

 KPOINTS: Automatic mesh

Automatic generation of k-mesh.
 generate k-points for:  12  12  12

 Subroutine IBZKPT returns following result:

 Found     84 irreducible k-points:

 Following reciprocal coordinates:
            Coordinates               Weight
  0.000000  0.000000  0.000000      1.000000
  0.083333  0.000000  0.000000      6.000000
  0.166667  0.000000  0.000000      6.000000
  0.250000  0.000000  0.000000      6.000000
  0.333333  0.000000  0.000000      6.000000
  0.416667  0.000000  0.000000      6.000000
  0.500000  0.000000  0.000000      3.000000
  0.083333  0.083333  0.000000     12.000000
  0.166667  0.083333  0.000000     24.000000
  0.250000  0.083333  0.000000     24.000000
  0.333333  0.083333  0.000000     24.000000
  0.416667  0.083333  0.000000     24.000000
  0.500000  0.083333  0.000000     12.000000
  0.166667  0.166667  0.000000     12.000000
  0.250000  0.166667  0.000000     24.000000
  0.333333  0.166667  0.000000     24.000000
  0.416667  0.166667  0.000000     24.000000
  0.500000  0.166667  0.000000     12.000000
  0.250000  0.250000  0.000000     12.000000
  0.333333  0.250000  0.000000     24.000000
  0.416667  0.250000  0.000000     24.000000
  0.500000  0.250000  0.000000     12.000000
  0.333333  0.333333  0.000000     12.000000
  0.416667  0.333333  0.000000     24.000000
  0.500000  0.333333  0.000000     12.000000
  0.416667  0.416667  0.000000     12.000000
  0.500000  0.416667  0.000000     12.000000
  0.500000  0.500000  0.000000      3.000000
  0.083333  0.083333  0.083333      8.000000
  0.166667  0.083333  0.083333     24.000000
  0.250000  0.083333  0.083333     24.000000
  0.333333  0.083333  0.083333     24.000000
  0.416667  0.083333  0.083333     24.000000
  0.500000  0.083333  0.083333     12.000000
  0.166667  0.166667  0.083333     24.000000
  0.250000  0.166667  0.083333     48.000000
  0.333333  0.166667  0.083333     48.000000
  0.416667  0.166667  0.083333     48.000000
  0.500000  0.166667  0.083333     24.000000
  0.250000  0.250000  0.083333     24.000000
  0.333333  0.250000  0.083333     48.000000
  0.416667  0.250000  0.083333     48.000000
  0.500000  0.250000  0.083333     24.000000
  0.333333  0.333333  0.083333     24.000000
  0.416667  0.333333  0.083333     48.000000
  0.500000  0.333333  0.083333     24.000000
  0.416667  0.416667  0.083333     24.000000
  0.500000  0.416667  0.083333     24.000000
  0.500000  0.500000  0.083333      6.000000
  0.166667  0.166667  0.166667      8.000000
  0.250000  0.166667  0.166667     24.000000
  0.333333  0.166667  0.166667     24.000000
  0.416667  0.166667  0.166667     24.000000
  0.500000  0.166667  0.166667     12.000000
  0.250000  0.250000  0.166667     24.000000
  0.333333  0.250000  0.166667     48.000000
  0.416667  0.250000  0.166667     48.000000
  0.500000  0.250000  0.166667     24.000000
  0.333333  0.333333  0.166667     24.000000
  0.416667  0.333333  0.166667     48.000000
[...]
  0.416667  0.333333  0.250000     48.000000
  0.500000  0.333333  0.250000     24.000000
  0.416667  0.416667  0.250000     24.000000
  0.500000  0.416667  0.250000     24.000000
  0.500000  0.500000  0.250000      6.000000
  0.333333  0.333333  0.333333      8.000000
  0.416667  0.333333  0.333333     24.000000
  0.500000  0.333333  0.333333     12.000000
  0.416667  0.416667  0.333333     24.000000
  0.500000  0.416667  0.333333     24.000000
  0.500000  0.500000  0.333333      6.000000
  0.416667  0.416667  0.416667      8.000000
  0.500000  0.416667  0.416667     12.000000
  0.500000  0.500000  0.416667      6.000000
  0.500000  0.500000  0.500000      1.000000

 Following cartesian coordinates:
            Coordinates               Weight
  0.000000  0.000000  0.000000      1.000000
  0.020314  0.000000  0.000000      6.000000
  0.040628  0.000000  0.000000      6.000000
  0.060941  0.000000  0.000000      6.000000
  0.081255  0.000000  0.000000      6.000000
  0.101569  0.000000  0.000000      6.000000
  0.121883  0.000000  0.000000      3.000000
  0.020314  0.020314  0.000000     12.000000
  0.040628  0.020314  0.000000     24.000000
  0.060941  0.020314  0.000000     24.000000
  0.081255  0.020314  0.000000     24.000000
  0.101569  0.020314  0.000000     24.000000
  0.121883  0.020314  0.000000     12.000000
  0.040628  0.040628  0.000000     12.000000
  0.060941  0.040628  0.000000     24.000000
  0.081255  0.040628  0.000000     24.000000
  0.101569  0.040628  0.000000     24.000000
  0.121883  0.040628  0.000000     12.000000
  0.060941  0.060941  0.000000     12.000000
  0.081255  0.060941  0.000000     24.000000
  0.101569  0.060941  0.000000     24.000000
  0.121883  0.060941  0.000000     12.000000
  0.081255  0.081255  0.000000     12.000000
  0.101569  0.081255  0.000000     24.000000
  0.121883  0.081255  0.000000     12.000000
  0.101569  0.101569  0.000000     12.000000
  0.121883  0.101569  0.000000     12.000000
  0.121883  0.121883  0.000000      3.000000
  0.020314  0.020314  0.020314      8.000000
  0.040628  0.020314  0.020314     24.000000
  0.060941  0.020314  0.020314     24.000000
  0.081255  0.020314  0.020314     24.000000
  0.101569  0.020314  0.020314     24.000000
  0.121883  0.020314  0.020314     12.000000
  0.040628  0.040628  0.020314     24.000000
  0.060941  0.040628  0.020314     48.000000
  0.081255  0.040628  0.020314     48.000000
  0.101569  0.040628  0.020314     48.000000
  0.121883  0.040628  0.020314     24.000000
  0.060941  0.060941  0.020314     24.000000
  0.081255  0.060941  0.020314     48.000000
  0.101569  0.060941  0.020314     48.000000
  0.121883  0.060941  0.020314     24.000000
  0.081255  0.081255  0.020314     24.000000
  0.101569  0.081255  0.020314     48.000000
  0.121883  0.081255  0.020314     24.000000
  0.101569  0.101569  0.020314     24.000000
  0.121883  0.101569  0.020314     24.000000
  0.121883  0.121883  0.020314      6.000000
  0.040628  0.040628  0.040628      8.000000
  0.060941  0.040628  0.040628     24.000000
  0.081255  0.040628  0.040628     24.000000
  0.101569  0.040628  0.040628     24.000000
  0.121883  0.040628  0.040628     12.000000
  0.060941  0.060941  0.040628     24.000000
  0.081255  0.060941  0.040628     48.000000
  0.101569  0.060941  0.040628     48.000000
  0.121883  0.060941  0.040628     24.000000
  0.081255  0.081255  0.040628     24.000000
  0.101569  0.081255  0.040628     48.000000
[...]
  0.101569  0.081255  0.060941     48.000000
  0.121883  0.081255  0.060941     24.000000
  0.101569  0.101569  0.060941     24.000000
  0.121883  0.101569  0.060941     24.000000
  0.121883  0.121883  0.060941      6.000000
  0.081255  0.081255  0.081255      8.000000
  0.101569  0.081255  0.081255     24.000000
  0.121883  0.081255  0.081255     12.000000
  0.101569  0.101569  0.081255     24.000000
  0.121883  0.101569  0.081255     24.000000
  0.121883  0.121883  0.081255      6.000000
  0.101569  0.101569  0.101569      8.000000
  0.121883  0.101569  0.101569     12.000000
  0.121883  0.121883  0.101569      6.000000
  0.121883  0.121883  0.121883      1.000000

 I would recommend the setting:
   dimension x,y,z NGX =    30 NGY =   30 NGZ =   30
 SYSTEM =  unknown system
 POSCAR =  Ag

 Startparameter for this run:
   NWRITE =      2    write-flag & timer
   PREC   = accura    medium, high low
   ISTART =      0    job   : 0-new  1-cont  2-samecut
   ICHARG =      2    charge: 1-file 2-atom 10-const
   ISPIN  =      1    spin polarized calculation?
   LNONCOLLINEAR =      F non collinear calculations
   LSORBIT =      F    spin-orbit coupling
   INIWAV =      1    electr: 0-lowe 1-rand  2-diag
   LASPH  =      F    aspherical Exc in radial PAW
   METAGGA=      F    non-selfconsistent MetaGGA calc.

 Electronic Relaxation 1
   ENCUT  =  500.0 eV  36.75 Ry    6.06 a.u.   7.48  7.48  7.48*2*pi/ulx,y,z
   ENINI  =  500.0     initial cutoff
   ENAUG  =  412.5 eV  augmentation charge cutoff
   NELM   =     60;   NELMIN=  2; NELMDL=  0     # of ELM steps
   EDIFF  = 0.1E-07   stopping-criterion for ELM
   LREAL  =      F    real-space projection
   LCOMPAT=      F    compatible to vasp.4.4
   LREAL_COMPAT= F    compatible to vasp.4.5.1-3
   GGA_COMPAT  = T    GGA compatible to vasp.4.4-vasp.4.6
   LMAXPAW     = -100 max onsite density
   LMAXMIX     =    2 max onsite mixed and CHGCAR
[...]
 k-point 15 :  0.25000.16670.0000  plane waves:   1766
 k-point 16 :  0.33330.16670.0000  plane waves:   1759
 k-point 17 :  0.41670.16670.0000  plane waves:   1759
 k-point 18 :  0.50000.16670.0000  plane waves:   1736
 k-point 19 :  0.25000.25000.0000  plane waves:   1759
 k-point 20 :  0.33330.25000.0000  plane waves:   1758
 k-point 21 :  0.41670.25000.0000  plane waves:   1753
 k-point 22 :  0.50000.25000.0000  plane waves:   1752
 k-point 23 :  0.33330.33330.0000  plane waves:   1746
 k-point 24 :  0.41670.33330.0000  plane waves:   1740
 k-point 25 :  0.50000.33330.0000  plane waves:   1736
 k-point 26 :  0.41670.41670.0000  plane waves:   1728
 k-point 27 :  0.50000.41670.0000  plane waves:   1738
 k-point 28 :  0.50000.50000.0000  plane waves:   1740
 k-point 29 :  0.08330.08330.0833  plane waves:   1767
 k-point 30 :  0.16670.08330.0833  plane waves:   1768
 k-point 31 :  0.25000.08330.0833  plane waves:   1761
 k-point 32 :  0.33330.08330.0833  plane waves:   1756
 k-point 33 :  0.41670.08330.0833  plane waves:   1749
 k-point 34 :  0.50000.08330.0833  plane waves:   1752
 k-point 35 :  0.16670.16670.0833  plane waves:   1770
 k-point 36 :  0.25000.16670.0833  plane waves:   1763
 k-point 37 :  0.33330.16670.0833  plane waves:   1754
 k-point 38 :  0.41670.16670.0833  plane waves:   1755
 k-point 39 :  0.50000.16670.0833  plane waves:   1752
 k-point 40 :  0.25000.25000.0833  plane waves:   1750
 k-point 41 :  0.33330.25000.0833  plane waves:   1759
 k-point 42 :  0.41670.25000.0833  plane waves:   1759
 k-point 43 :  0.50000.25000.0833  plane waves:   1744
 k-point 44 :  0.33330.33330.0833  plane waves:   1762
 k-point 45 :  0.41670.33330.0833  plane waves:   1743
 k-point 46 :  0.50000.33330.0833  plane waves:   1736
 k-point 47 :  0.41670.41670.0833  plane waves:   1736
 k-point 48 :  0.50000.41670.0833  plane waves:   1736
 k-point 49 :  0.50000.50000.0833  plane waves:   1736
 k-point 50 :  0.16670.16670.1667  plane waves:   1743
 k-point 51 :  0.25000.16670.1667  plane waves:   1754
 k-point 52 :  0.33330.16670.1667  plane waves:   1762
 k-point 53 :  0.41670.16670.1667  plane waves:   1759
 k-point 54 :  0.50000.16670.1667  plane waves:   1752
 k-point 55 :  0.25000.25000.1667  plane waves:   1754
 k-point 56 :  0.33330.25000.1667  plane waves:   1751
 k-point 57 :  0.41670.25000.1667  plane waves:   1750
 k-point 58 :  0.50000.25000.1667  plane waves:   1744
 k-point 59 :  0.33330.33330.1667  plane waves:   1759
 k-point 60 :  0.41670.33330.1667  plane waves:   1745
[...]
 k-point 70 :  0.41670.33330.2500  plane waves:   1747
 k-point 71 :  0.50000.33330.2500  plane waves:   1744
 k-point 72 :  0.41670.41670.2500  plane waves:   1755
 k-point 73 :  0.50000.41670.2500  plane waves:   1752
 k-point 74 :  0.50000.50000.2500  plane waves:   1748
 k-point 75 :  0.33330.33330.3333  plane waves:   1745
 k-point 76 :  0.41670.33330.3333  plane waves:   1752
 k-point 77 :  0.50000.33330.3333  plane waves:   1748
 k-point 78 :  0.41670.41670.3333  plane waves:   1751
 k-point 79 :  0.50000.41670.3333  plane waves:   1750
 k-point 80 :  0.50000.50000.3333  plane waves:   1740
 k-point 81 :  0.41670.41670.4167  plane waves:   1754
 k-point 82 :  0.50000.41670.4167  plane waves:   1760
 k-point 83 :  0.50000.50000.4167  plane waves:   1756
 k-point 84 :  0.50000.50000.5000  plane waves:   1736

 maximum and minimum number of plane-waves per node :   1777  1728

 maximum number of plane-waves:   1777
 maximal index in each direction:
   IXMAX=  7   IYMAX=  7   IZMAX=  7
   IXMIN= -7   IYMIN= -7   IZMIN= -7

 NGX is ok and might be reduce to  30
 NGY is ok and might be reduce to  30
 NGZ is ok and might be reduce to  30

 parallel 3dFFT wavefunction:
    minimum data exchange during FFTs selected (reduces bandwidth)
 parallel 3dFFT charge:
    minimum data exchange during FFTs selected (reduces bandwidth)

Broyden mixing: mesh for mixing (old mesh)
   NGX = 15   NGY = 15   NGZ = 15
  (NGX  = 60   NGY  = 60   NGZ  = 60)
 gives a total of   3375 points
 initial charge density was supplied:
 charge density of overlapping atoms calculated
 number of electron   44.0000000 magnetization
 keeping initial charge density in first step

 Maximum index for augmentation-charges        37357 (set IRDMAX)

 First call to EWALD:  gamma=   0.432
 Maximum number of real-space cells 3x 3x 3
 Maximum number of reciprocal cells 3x 3x 3

----------------------------------------- Iteration    1(   1)  ---------------------------------------

 eigenvalue-minimisations  :  4728
 total energy-change (2. order) : 0.3990504E+03  (-0.2212606E+04)
 number of electron   44.0000000 magnetization
 augmentation part    44.0000000 magnetization

 Free energy of the ion-electron system (eV)
  alpha Z        PSCENC =       411.55124789
  Ewald energy   TEWEN  =     -3894.66000223
  -1/2 Hartree   DENC   =      -817.66819130
  -V(xc)+E(xc)   XCENC  =       -42.92199863
  PAW double counting   =      3482.67677651    -3297.07979946
  entropy T*S    EENTRO =        -0.00012622
  eigenvalues    EBANDS =       407.51965120
  atomic energy  EATOM  =      4149.63283719
  free energy    TOTEN  =       399.05039495 eV

  energy without entropy =      399.05052118  energy(sigma->0) =      399.05045806

[...]

 eigenvalue-minimisations  :  4744
 total energy-change (2. order) :-0.3989110E+03  (-0.3814885E+03)
 number of electron   44.0000000 magnetization
 augmentation part    44.0000000 magnetization

[...]

 Broyden mixing:
  rms(total) = 0.57746E+00    rms(broyden)= 0.57745E+00
  rms(prec ) = 0.14352E+01
  weight for this iteration     100.00

[...]

 eigenvalues of (default mixing * dielectric matrix)
  average eigenvalue GAMMA=   1.0806
  1.0806

[...]

 average (electrostatic) potential at core
  the test charge radii are     1.1249
  (the norm of the test charge is              1.0000)
       1 -41.3526       2 -41.3526       3 -41.3526       4 -41.3526

 E-fermi :   3.4277     XC(G=0): -12.1369     alpha+bet : -8.4365
   add alpha+bet to get absolut eigen values

 k-point   1 :       0.0000    0.0000    0.0000
  band No.  band energies     occupation
      1      -4.2657      2.00000
      2      -2.9749      2.00000
      3      -2.9749      2.00000
      4      -2.9749      2.00000
      5      -2.8413      2.00000
      6      -2.8413      2.00000
      7      -2.8413      2.00000
      8      -1.3738      2.00000
      9      -1.3738      2.00000
     10      -1.3738      2.00000
     11      -0.3598      2.00000
     12      -0.3598      2.00000
     13       0.3876      2.00000
     14       0.3876      2.00000
     15       0.3876      2.00000
     16       0.6217      2.00000
     17       0.6217      2.00000
     18       0.6217      2.00000
     19       0.6217      2.00000
     20       0.6217      2.00000
     21       0.6217      2.00000
     22       5.0425      0.00000
     23       5.0425      0.00000
     24       5.0425      0.00000
     25      10.0704      0.00000
     26      10.0704      0.00000
     27      10.0704      0.00000
     28      14.2059      0.00000

[...]

 soft charge-density along one line, spin component           1
         0         1         2         3         4         5         6         7         8         9
 total charge-density along one line

------------------------ aborting loop because EDIFF is reached ----------------------------------------

  FREE ENERGIE OF THE ION-ELECTRON SYSTEM (eV)
  free  energy   TOTEN  =       -11.275931 eV

  energy  without entropy=      -11.275882  energy(sigma->0) =      -11.275906

  FORCE on cell =-STRESS in cart. coord.  units (eV/reduce length):
  Direction    X        Y        Z        XY       YZ       ZX
  Alpha Z    411.55    411.55    411.55
  Ewald    -1298.22  -1298.22  -1298.22      0.00     -0.00      0.00
  Hartree    256.49    256.49    256.49     -0.00     -0.00     -0.00
  E(xc)     -232.84   -232.84   -232.84     -0.00     -0.00      0.00
  Local      413.63    413.63    413.63     -0.00      0.00     -0.00
  n-local   -254.96   -262.89   -265.38      0.27      2.36      0.72
  augment    167.83    167.83    167.83     -0.00     -0.00     -0.00
  Kinetic    552.02    543.49    538.24     -3.13      0.35     -1.20
  Total        1.95      1.95      1.95     -0.00      0.00      0.00
  in kB       45.16     45.16     45.16     -0.00      0.00      0.00

 VOLUME and BASIS-vectors are now :
  energy-cutoff  :      500.00
  volume of cell :       69.04
      direct lattice vectors                 reciprocal lattice vectors
     4.102307100  0.000000000  0.000000000     0.243765271  0.000000000  0.000000000
     0.000000000  4.102307100  0.000000000     0.000000000  0.243765271  0.000000000
     0.000000000  0.000000000  4.102307100     0.000000000  0.000000000  0.243765271

[...]

 FORCES acting on ions
    electron-ion (+dipol)            ewald-force                    non-local-force                 convergence-correction
   -.131E-13 -.136E-13 -.280E-13   -.273E-15 -.828E-14 -.688E-14   0.258E-25 0.258E-25 -.194E-25   0.169E-13 0.213E-14 -.593E-13
   0.133E-12 0.214E-11 -.156E-11   0.926E-14 0.138E-14 -.669E-14   -.452E-25 0.129E-25 -.743E-25   -.190E-13 0.485E-14 -.626E-13
   0.131E-12 -.141E-13 -.429E-12   0.188E-14 -.173E-14 0.635E-14   -.331E-25 -.194E-25 0.242E-26   -.262E-13 0.413E-14 0.513E-13
   -.129E-13 0.140E-12 0.129E-12   -.608E-14 0.793E-14 0.655E-14   0.646E-26 0.194E-25 0.646E-26   0.178E-13 0.708E-15 0.522E-13
   0.238E-12 0.225E-11 -.188E-11   0.479E-14 -.706E-15 -.668E-15   -.460E-25 0.388E-25 -.848E-25   -.105E-13 0.118E-13 -.184E-13

 POSITION                                       TOTAL-FORCE (eV/Angst)
      0.00000      0.00000      0.00000         0.000000      0.000000      0.000000
      2.05115      2.05115      0.00000         0.000000     -0.000000      0.000000
      2.05115      0.00000      2.05115        -0.000000      0.000000      0.000000
      0.00000      2.05115      2.05115        -0.000000      0.000000      0.000000
    total drift:                                0.000000      0.000000     -0.000000

[...]

 d Force = 0.0000000E+00[ 0.000E+00, 0.000E+00]  d Energy = 0.3000511E-01-0.300E-01
 d Force = 0.0000000E+00[ 0.000E+00, 0.000E+00]  d Ewald  =-0.8930302E+02 0.893E+02

[...]

 Steepest descent step on ions:
 trial-energy change:   -0.030005  1 .order   -0.035585   -0.136991    0.065821
  (g-gl).g = 0.137E+00      g.g   = 0.137E+00  gl.gl    = 0.000E+00
 g(Force)  = 0.192E-59   g(Stress)= 0.137E+00 ortho     = 0.000E+00
 gamma     =   0.00000
 trial     =   1.00000
 opt step  =   0.63730  (harmonic =   0.67546) maximal distance =0.00000000
 next E    =   -11.318139   (d E  =  -0.04221)

[...]

 eigenvalue-minimisations  :  3624
 total energy-change (2. order) :-0.8072675E-07  (-0.1865710E-08)
 number of electron   44.0000002 magnetization
 augmentation part    21.1163801 magnetization

[...]

 Broyden mixing:
  rms(total) = 0.17627E-05    rms(broyden)= 0.17622E-05
  rms(prec ) = 0.36396E-05
  weight for this iteration     100.00

 eigenvalues of (default mixing * dielectric matrix)
  average eigenvalue GAMMA=   1.7604
  2.7479  2.7031  2.4762  2.1464  1.0148  1.0148  0.9902  0.9902

[...]

----------------------------------------- Iteration    3(  10)  ---------------------------------------

 eigenvalue-minimisations  :  2432
 total energy-change (2. order) : 0.7292329E-08  (-0.1341549E-10)
 number of electron   44.0000002 magnetization
 augmentation part    21.1163836 magnetization

 Free energy of the ion-electron system (eV)
  alpha Z        PSCENC =       393.62463894
  Ewald energy   TEWEN  =     -3837.26979000
  -1/2 Hartree   DENC   =      -798.37301413
  -V(xc)+E(xc)   XCENC  =       -45.12800186
  PAW double counting   =      3467.04500122    -3289.89090604
  entropy T*S    EENTRO =        -0.00011825
  eigenvalues    EBANDS =       -50.95846224
  atomic energy  EATOM  =      4149.63283719
  free energy    TOTEN  =       -11.31781516 eV

  energy without entropy =      -11.31769691  energy(sigma->0) =      -11.31775603

 average (electrostatic) potential at core
  the test charge radii are     1.1249
  (the norm of the test charge is              1.0000)
       1 -41.6306       2 -41.6306       3 -41.6306       4 -41.6306

 E-fermi :   3.0941     XC(G=0): -11.8745     alpha+bet : -8.0690
   add alpha+bet to get absolut eigen values

[...]

 k-point  84 :       0.5000    0.5000    0.5000
  band No.  band energies     occupation
      1      -3.0453      2.00000
      2      -3.0453      2.00000
      3      -3.0453      2.00000
      4      -3.0453      2.00000
      5      -1.6221      2.00000
      6      -1.6221      2.00000
      7      -1.6221      2.00000
      8      -1.6221      2.00000
      9      -1.6221      2.00000
     10      -1.6221      2.00000
     11      -1.6221      2.00000
     12      -1.6221      2.00000
     13       0.0519      2.00000
     14       0.0519      2.00000
     15       0.0519      2.00000
     16       0.0519      2.00000
     17       0.0519      2.00000
     18       0.0519      2.00000
     19       0.0519      2.00000
     20       0.0519      2.00000
     21       2.7768      2.00000
     22       2.7768      2.00000
     23       2.7768      2.00000
     24       2.7768      2.00000
     25       6.3376      0.00000
     26       6.3376      0.00000
     27       6.3376      0.00000
     28       6.3376      0.00000

 soft charge-density along one line, spin component           1
         0         1         2         3         4         5         6         7         8         9
 total charge-density along one line

------------------------ aborting loop because EDIFF is reached ----------------------------------------

 d Force = 0.0000000E+00[ 0.000E+00, 0.000E+00]  d Energy = 0.1187892E-01-0.119E-01
 d Force = 0.0000000E+00[ 0.000E+00, 0.000E+00]  d Ewald  = 0.3191281E+02-0.319E+02

  FREE ENERGIE OF THE ION-ELECTRON SYSTEM (eV)
  free  energy   TOTEN  =       -11.317815 eV

  energy  without entropy=      -11.317697  energy(sigma->0) =      -11.317756

  FORCE on cell =-STRESS in cart. coord.  units (eV/reduce length):
  Direction    X        Y        Z        XY       YZ       ZX
  Alpha Z    393.62    393.62    393.62
  Ewald    -1279.09  -1279.09  -1279.09     -0.00      0.00      0.00
  Hartree    266.12    266.12    266.12     -0.00     -0.00     -0.00
  E(xc)     -232.44   -232.44   -232.44      0.00      0.00      0.00
  Local      403.75    403.75    403.75      0.00      0.00      0.00
  n-local   -257.75   -265.42   -267.76      0.23      2.29      0.69
  augment    167.69    167.69    167.69     -0.00     -0.00     -0.00
  Kinetic    551.37    542.83    537.78     -2.98      0.51     -1.10
  Total        0.00      0.00      0.00     -0.00     -0.00     -0.00
  in kB        0.01      0.01      0.01     -0.00     -0.00     -0.00

 VOLUME and BASIS-vectors are now :
  energy-cutoff  :      500.00
  volume of cell :       72.18
      direct lattice vectors                 reciprocal lattice vectors
     4.163661211 -0.000000000  0.000000000     0.240173239  0.000000000 -0.000000000
    -0.000000000  4.163661211  0.000000000     0.000000000  0.240173239 -0.000000000
     0.000000000  0.000000000  4.163661211    -0.000000000 -0.000000000  0.240173239

  length of vectors
     4.163661211  4.163661211  4.163661211     0.240173239  0.240173239  0.240173239

 FORCES acting on ions
    electron-ion (+dipol)            ewald-force                    non-local-force                 convergence-correction
   -.146E-13 -.148E-13 -.167E-13   0.106E-14 -.252E-14 0.134E-14   0.105E-25 -.647E-26 0.646E-26   -.104E-13 0.766E-14 -.750E-13
   0.132E-12 0.217E-11 -.157E-11   0.223E-13 0.708E-14 0.149E-14   0.728E-26 0.291E-25 0.129E-25   -.474E-14 0.287E-14 -.656E-13
   0.133E-12 -.121E-13 -.442E-12   -.155E-13 -.730E-14 -.264E-14   0.323E-25 -.162E-25 0.226E-25   -.815E-14 0.309E-14 0.443E-13
   -.154E-13 0.140E-12 0.132E-12   -.112E-13 0.230E-14 -.249E-14   0.322E-26 -.646E-26 -.646E-26   -.157E-13 0.325E-14 0.489E-13
   0.234E-12 0.228E-11 -.189E-11   -.334E-14 -.439E-15 -.229E-14   0.533E-25 -.158E-29 0.355E-25   -.390E-13 0.169E-13 -.473E-13

 POSITION                                       TOTAL-FORCE (eV/Angst)
      0.00000      0.00000      0.00000         0.000000      0.000000      0.000000
      2.08183      2.08183      0.00000        -0.000000      0.000000      0.000000
      2.08183      0.00000      2.08183         0.000000     -0.000000      0.000000
     -0.00000      2.08183      2.08183         0.000000     -0.000000      0.000000
    total drift:                                0.000000      0.000000     -0.000000

 reached required accuracy - stopping structural energy minimisation