 vasp.4.6.28 25Jul05 complex
 executed on             LinuxIFC date 2017.01.06  19:15:12

 INCAR:
 POTCAR:   PAW_PBE Al 04Jan2001
 POTCAR:   PAW_PBE Al 04Jan2001
   VRHFIN =Al: s2p1

   TITEL  = PAW_PBE Al 04Jan2001
   POMASS =   26.982; ZVAL   =    3.000    mass and valenz
   ENMAX  =  240.300; ENMIN  =  180.225 eV
   QCUT   =   -4.203; QGAM   =    8.405    optimization parameters

   Description
     l     E      TYP  RCUT    TYP  RCUT
     0   .000     23  1.900
     0   .000     23  1.900
     1   .000     23  1.900
     1  1.000     23  1.900
     2   .000      7  1.900

 PAW_PBE Al 04Jan2001                   :

 POSCAR: al100
  positions in direct lattice

 ion  position               nearest neighbor table
   1  0.750  0.750  0.500-   3 3.08   5 3.08  14 3.08  19 3.08  20 3.08  26 3.08   6 3.08  29 3.08
                            11 3.08  18 3.08  10 3.08   8 3.08
   2  0.750  0.750  0.000-   8 3.08  10 3.08  11 3.08  18 3.08  22 3.08  27 3.08  12 3.08  32 3.08
                             5 3.08  26 3.08   3 3.08  20 3.08
   3  0.750  0.000  0.250-   1 3.08   5 3.08   9 3.08  12 3.08  19 3.08  28 3.08  13 3.08  18 3.08
                            27 3.08   6 3.08   4 3.08   2 3.08
   4  0.750  0.250  0.500-   6 3.08   8 3.08  10 3.08  13 3.08  29 3.08  31 3.08  14 3.08  19 3.08
                            21 3.08  28 3.08   3 3.08  20 3.08
   5  0.000  0.750  0.250-   1 3.08   3 3.08  12 3.08  14 3.08  15 3.08  25 3.08  16 3.08  10 3.08
                             2 3.08   7 3.08  22 3.08   6 3.08
   6  0.000  0.000  0.500-   4 3.08   7 3.08   8 3.08  11 3.08  13 3.08  16 3.08   1 3.08  17 3.08
                             3 3.08  23 3.08  21 3.08   5 3.08
   7  0.250  0.750  0.500-   6 3.08  11 3.08  16 3.08  18 3.08  29 3.08  30 3.08  14 3.08  19 3.08
                             5 3.08  26 3.08  25 3.08  23 3.08
   8  0.750  0.000  0.750-   2 3.08   4 3.08   6 3.08  11 3.08  27 3.08  31 3.08  21 3.08  26 3.08
                            12 3.08  19 3.08   9 3.08   1 3.08
   9  0.750  0.250  0.000-   3 3.08  12 3.08  20 3.08  21 3.08  28 3.08  32 3.08  22 3.08  27 3.08
                            31 3.08  13 3.08  10 3.08   8 3.08
  10  0.750  0.500  0.250-   2 3.08   4 3.08  13 3.08  18 3.08  22 3.08  29 3.08  28 3.08   5 3.08
                            14 3.08  32 3.08   9 3.08   1 3.08
  11  0.000  0.750  0.750-   2 3.08   6 3.08   7 3.08   8 3.08  22 3.08  30 3.08  23 3.08  20 3.08
                             1 3.08  15 3.08  14 3.08  12 3.08
  12  0.000  0.000  0.000-   3 3.08   5 3.08   9 3.08  15 3.08  21 3.08  23 3.08   2 3.08  24 3.08
                            16 3.08   8 3.08  13 3.08  11 3.08
  13  0.000  0.250  0.250-   4 3.08   6 3.08  10 3.08  16 3.08  22 3.08  24 3.08   3 3.08  25 3.08
                            17 3.08   9 3.08  14 3.08  12 3.08
  14  0.000  0.500  0.500-   1 3.08   5 3.08  17 3.08  20 3.08  21 3.08  25 3.08   4 3.08   7 3.08
                            10 3.08  30 3.08  13 3.08  11 3.08
  15  0.250  0.750  0.000-   5 3.08  12 3.08  23 3.08  25 3.08  26 3.08  32 3.08  27 3.08  22 3.08
                            11 3.08  18 3.08  30 3.08  16 3.08
  16  0.250  0.000  0.250-   6 3.08   7 3.08  13 3.08  18 3.08  24 3.08  27 3.08   5 3.08  28 3.08
                            19 3.08  12 3.08  17 3.08  15 3.08
  17  0.250  0.250  0.500-  14 3.08  19 3.08  21 3.08  23 3.08  25 3.08  28 3.08   6 3.08  29 3.08
                            13 3.08  31 3.08  30 3.08  16 3.08
  18  0.500  0.750  0.250-   2 3.08   7 3.08  10 3.08  16 3.08  27 3.08  29 3.08   3 3.08  25 3.08
                             1 3.08  15 3.08  19 3.08  32 3.08
  19  0.500  0.000  0.500-   1 3.08   3 3.08  17 3.08  23 3.08  26 3.08  28 3.08   4 3.08   7 3.08
                             8 3.08  16 3.08  18 3.08  31 3.08
  20  0.750  0.500  0.750-   1 3.08   9 3.08  14 3.08  21 3.08  26 3.08  32 3.08  31 3.08  11 3.08
                            22 3.08  29 3.08   4 3.08   2 3.08
  21  0.000  0.250  0.750-   9 3.08  12 3.08  14 3.08  17 3.08  20 3.08  23 3.08   8 3.08  30 3.08
                            24 3.08   4 3.08  22 3.08   6 3.08
  22  0.000  0.500  0.000-   2 3.08  10 3.08  11 3.08  13 3.08  24 3.08  30 3.08   9 3.08  15 3.08
                            25 3.08  20 3.08  21 3.08   5 3.08
  23  0.250  0.000  0.750-  12 3.08  15 3.08  17 3.08  19 3.08  21 3.08  26 3.08  11 3.08  31 3.08
                            27 3.08   6 3.08  24 3.08   7 3.08
  24  0.250  0.250  0.000-  13 3.08  16 3.08  22 3.08  27 3.08  30 3.08  31 3.08  12 3.08  32 3.08
                            28 3.08  21 3.08  25 3.08  23 3.08
  25  0.250  0.500  0.250-   5 3.08  14 3.08  15 3.08  17 3.08  28 3.08  32 3.08  13 3.08  18 3.08
                            29 3.08  22 3.08  24 3.08   7 3.08
  26  0.500  0.750  0.750-   1 3.08  15 3.08  19 3.08  20 3.08  23 3.08  32 3.08  30 3.08   8 3.08
                             7 3.08   2 3.08  27 3.08  29 3.08
  27  0.500  0.000  0.000-   2 3.08   8 3.08  16 3.08  18 3.08  24 3.08  31 3.08   9 3.08  15 3.08
                             3 3.08  23 3.08  28 3.08  26 3.08
  28  0.500  0.250  0.250-   3 3.08   9 3.08  17 3.08  19 3.08  25 3.08  32 3.08  10 3.08  16 3.08
                             4 3.08  24 3.08  29 3.08  27 3.08
  29  0.500  0.500  0.500-   4 3.08   7 3.08  10 3.08  18 3.08  30 3.08  31 3.08  17 3.08   1 3.08
                            20 3.08  25 3.08  26 3.08  28 3.08
  30  0.250  0.500  0.750-   7 3.08  11 3.08  22 3.08  24 3.08  29 3.08  31 3.08  21 3.08  26 3.08
                            14 3.08  32 3.08  17 3.08  15 3.08
  31  0.500  0.250  0.750-   4 3.08   8 3.08  24 3.08  27 3.08  29 3.08  30 3.08  20 3.08  23 3.08
                             9 3.08  17 3.08  19 3.08  32 3.08
  32  0.500  0.500  0.000-   9 3.08  15 3.08  20 3.08  25 3.08  26 3.08  28 3.08  24 3.08   2 3.08
                            10 3.08  30 3.08  18 3.08  31 3.08

  LATTYP: Found a simple cubic cell.
 ALAT       =     8.7205809800

  Lattice vectors:

 A1 = (   8.7205809800,   0.0000000000,   0.0000000000)
 A2 = (   0.0000001600,   8.7205809800,   0.0000000000)
 A3 = (   0.0000001600,   0.0000001600,   8.7205809800)
 Subroutine PRICEL returns following result:

  LATTYP: Found a face centered cubic cell.
 ALAT       =     4.3602905300

  Lattice vectors:

 A1 = (   2.1801452850,   2.1801452450,   0.0000000000)
 A2 = (   2.1801452050,  -0.0000000400,  -2.1801452450)
 A3 = (   0.0000000000,   2.1801452050,  -2.1801452450)

  32 primitive cells build up your supercell.

Analysis of symmetry for initial positions (statically):

 Routine SETGRP: Setting up the symmetry group for a
 simple cubic supercell.

 Subroutine GETGRP returns: Found 48 space group operations
 (whereof 48 operations were pure point group operations)
 out of a pool of 48 trial point group operations.

The static configuration has the point symmetry O_h .

Analysis of symmetry for dynamics (positions and initial velocities):

 Subroutine DYNSYM returns: Found 48 space group operations
 (whereof 48 operations were pure point group operations)
 out of a pool of 48 trial space group operations
 (whereof 48 operations were pure point group operations)
 and found also    32 'primitive' translations

The dynamic configuration has the point symmetry O_h .

 KPOINTS: Automatic mesh

Automatic generation of k-mesh.

 Subroutine IBZKPT returns following result:

 Found      4 irreducible k-points:

 Following reciprocal coordinates:
            Coordinates               Weight
  0.000000  0.000000  0.000000      1.000000
  0.333333  0.000000  0.000000      6.000000
  0.333333  0.333333 -0.000000     12.000000
  0.333333  0.333333  0.333333      8.000000

 Following cartesian coordinates:
            Coordinates               Weight
  0.000000  0.000000  0.000000      1.000000
  0.038224 -0.000000 -0.000000      6.000000
  0.038224  0.038224 -0.000000     12.000000
  0.038224  0.038224  0.038224      8.000000

 I would recommend the setting:
   dimension x,y,z NGX =    70 NGY =   70 NGZ =   70
 SYSTEM =  al100
 POSCAR =  al100

 Startparameter for this run:
   NWRITE =      2    write-flag & timer
   PREC   = accura    medium, high low
   ISTART =      0    job   : 0-new  1-cont  2-samecut
   ICHARG =      2    charge: 1-file 2-atom 10-const
   ISPIN  =      1    spin polarized calculation?
   LNONCOLLINEAR =      F non collinear calculations
   LSORBIT =      F    spin-orbit coupling
   INIWAV =      1    electr: 0-lowe 1-rand  2-diag
   LASPH  =      F    aspherical Exc in radial PAW
   METAGGA=      F    non-selfconsistent MetaGGA calc.

 Electronic Relaxation 1
   ENCUT  =  600.0 eV  44.10 Ry    6.64 a.u.  17.42 17.42 17.42*2*pi/ulx,y,z
   ENINI  =  600.0     initial cutoff
   ENAUG  =  291.1 eV  augmentation charge cutoff
   NELM   =     60;   NELMIN=  2; NELMDL= -5     # of ELM steps
   EDIFF  = 0.1E-04   stopping-criterion for ELM
   LREAL  =      F    real-space projection
   LCOMPAT=      F    compatible to vasp.4.4
   LREAL_COMPAT= F    compatible to vasp.4.5.1-3
   GGA_COMPAT  = T    GGA compatible to vasp.4.4-vasp.4.6
   LMAXPAW     = -100 max onsite density
   LMAXMIX     =    2 max onsite mixed and CHGCAR
   VOSKOWN=      1    Vosko Wilk Nusair interpolation
   ROPT   =    0.00000
 Ionic relaxation
   EDIFFG = -.2E-01   stopping-criterion for IOM
   NSW    =    100    number of steps for IOM
   NBLOCK =      1;   KBLOCK =    100    inner block; outer block
   IBRION =      2    ionic relax: 0-MD 1-quasi-New 2-CG
   NFREE  =      1    steps in history (QN), initial steepest desc. (CG)
   ISIF   =      2    stress and relaxation
   IWAVPR =     11    prediction:  0-non 1-charg 2-wave 3-comb
   ISYM   =      2    0-nonsym 1-usesym 2-fastsym
   LCORR  =      T    Harris-Foulkes like correction to forces

   POTIM  =   0.50    time-step for ionic-motion
   TEIN   =    0.0    initial temperature
   TEBEG  =    0.0;   TEEND  =   0.0 temperature during run
   SMASS  =  -3.00    Nose mass-parameter (am)
   estimated Nose-frequenzy (Omega)   =  0.10E-29 period in steps =****** mass=  -0.174E-26a.u.
   NPACO  =    256;   APACO  = 16.0  distance and # of slots for P.C.
   PSTRESS=    0.0 pullay stress

  Mass of Ions in am
   POMASS =  26.98
  Ionic Valenz
   ZVAL   =   3.00
  Atomic Wigner-Seitz radii
   NELECT =      96.0000    total number of electrons
   NUPDOWN=      -1.0000    fix difference up-down

 DOS related values:
   EMIN   =  10.00;   EMAX   =-10.00  energy-range for DOS
   ISMEAR =     1;   SIGMA  =   0.20  broadening in eV -4-tet -1-fermi 0-gaus

 Electronic relaxation 2 (details)
   IALGO  =     38    algorithm
   LDIAG  =      T    sub-space diagonalisation
   IMIX   =      4    mixing-type and parameters
     AMIX     =   0.40;   BMIX     =  1.00
     AMIX_MAG =   1.60;   BMIX_MAG =  1.00
     AMIN     =   0.10
     WC   =   100.;   INIMIX=   1;  MIXPRE=   1

 Intra band minimization:
   WEIMIN = 0.0010     energy-eigenvalue tresh-hold
   EBREAK =  0.38E-07  absolut break condition
   DEPER  =   0.30     relativ break condition

   TIME   =   0.10     timestep for ELM

  volume/ion in A,a.u.               =      20.72       139.86
[...]
  atomic energy  EATOM  =      1713.23359074
  free energy    TOTEN  =       127.98915209 eV

  energy without entropy =      128.01160303  energy(sigma->0) =      127.99663574

[...]

 eigenvalue-minimisations  :   628
 total energy-change (2. order) :-0.2282958E+03  (-0.2126165E+03)
 number of electron   96.0000000 magnetization
 augmentation part    96.0000000 magnetization

[...]

 eigenvalue-minimisations  :   644
 total energy-change (2. order) :-0.5431058E-02  (-0.5428319E-02)
 number of electron   96.0000000 magnetization
 augmentation part    -1.3458224 magnetization

 Broyden mixing:
  rms(total) = 0.48110E+00    rms(broyden)= 0.48110E+00
  rms(prec ) = 0.70623E+00
  weight for this iteration     100.00

[...]

 eigenvalues of (default mixing * dielectric matrix)
  average eigenvalue GAMMA=   2.6165
  2.6165

[...]

 Broyden mixing:
  rms(total) = 0.37149E-02    rms(broyden)= 0.37149E-02
  rms(prec ) = 0.53431E-02
  weight for this iteration     100.00

 eigenvalues of (default mixing * dielectric matrix)
  average eigenvalue GAMMA=   2.0520
  0.9378  2.6473  2.5710

[...]

----------------------------------------- Iteration    1(   9)  ---------------------------------------

 eigenvalue-minimisations  :   580
 total energy-change (2. order) : 0.1854063E-05  (-0.5163560E-05)
 number of electron   96.0000000 magnetization
 augmentation part    -1.4125602 magnetization

 Free energy of the ion-electron system (eV)
  alpha Z        PSCENC =        -5.18620160
  Ewald energy   TEWEN  =     -2180.36633663
  -1/2 Hartree   DENC   =        -4.04877524
  -V(xc)+E(xc)   XCENC  =      -850.21990374
  PAW double counting   =      1125.54975563     -102.54627645
  entropy T*S    EENTRO =        -0.03644967
  eigenvalues    EBANDS =       188.58488278
  atomic energy  EATOM  =      1713.23359074
  free energy    TOTEN  =      -115.03571419 eV

  energy without entropy =     -114.99926452  energy(sigma->0) =     -115.02356430

 average (electrostatic) potential at core
  the test charge radii are     1.0406
  (the norm of the test charge is              1.0000)
       1 -75.1175       2 -75.1175       3 -75.1175       4 -75.1175       5 -75.1175
       6 -75.1175       7 -75.1175       8 -75.1175       9 -75.1175      10 -75.1175
      11 -75.1175      12 -75.1175      13 -75.1175      14 -75.1175      15 -75.1175
      16 -75.1175      17 -75.1175      18 -75.1175      19 -75.1175      20 -75.1175
      21 -75.1175      22 -75.1175      23 -75.1175      24 -75.1175      25 -75.1175
      26 -75.1175      27 -75.1175      28 -75.1175      29 -75.1175      30 -75.1175
      31 -75.1175      32 -75.1175

 E-fermi :   5.6660     XC(G=0):  -9.3981     alpha+bet :-11.8439
   add alpha+bet to get absolut eigen values

 k-point   1 :       0.0000    0.0000    0.0000
  band No.  band energies     occupation
      1      -3.8371      2.00000
      2      -1.9033      2.00000
      3      -1.9033      2.00000
      4      -1.9033      2.00000
      5      -1.9033      2.00000
      6      -1.9033      2.00000
      7      -1.9033      2.00000
      8       0.0068      2.00000
      9       0.0068      2.00000
     10       0.0068      2.00000
     11       0.0068      2.00000
     12       0.0068      2.00000
     13       0.0068      2.00000
     14       0.0068      2.00000
     15       0.0068      2.00000
     16       0.0068      2.00000
     17       0.0068      2.00000
     18       0.0068      2.00000
     19       0.0068      2.00000
     20       1.7119      2.00000
     21       1.7119      2.00000
     22       1.7119      2.00000
     23       1.7119      2.00000
     24       2.0957      2.00000
     25       2.0957      2.00000
     26       2.0957      2.00000
     27       2.0957      2.00000
     28       3.4394      2.00000
     29       3.4394      2.00000
     30       3.4394      2.00000
     31       4.1613      2.00000
     32       4.1613      2.00000
     33       4.1613      2.00000
     34       5.2587      2.01418
     35       5.2587      2.01418
     36       5.2587      2.01418
     37       5.2587      2.01418
     38       5.2587      2.01418
     39       5.2587      2.01418
     40       5.2587      2.01418
     41       5.2587      2.01418
     42       5.2587      2.01418
     43       5.2587      2.01418
     44       5.2587      2.01418
     45       5.2587      2.01418
     46       5.7755      0.21019
     47       5.7755      0.21019
     48       5.7755      0.21019
     49       5.7755      0.21019
     50       5.7755      0.21019
     51       5.7755      0.21019
     52       6.3476     -0.00002
     53       6.3476     -0.00002
     54       6.3476     -0.00002
     55       6.3476     -0.00002
     56       6.3476     -0.00002
     57       6.3476     -0.00002
     58       7.0764     -0.00000
     59       7.0764     -0.00000
     60       7.0764     -0.00000
     61       7.0764     -0.00000
     62       7.0764     -0.00000
     63       7.0764     -0.00000
     64       7.0764     -0.00000
     65       7.0764     -0.00000
     66       7.0764     -0.00000
     67       7.0764     -0.00000
     68       7.0764     -0.00000

[...]

 k-point   4 :       0.3333    0.3333    0.3333
  band No.  band energies     occupation
      1      -3.1902      2.00000
      2      -2.5458      2.00000
      3      -2.5458      2.00000
      4      -2.5458      2.00000
      5      -1.9042      2.00000
      6      -1.9042      2.00000
      7      -1.9042      2.00000
      8      -1.2654      2.00000
      9       0.0075      2.00000
     10       0.0075      2.00000
     11       0.0075      2.00000
     12       0.6382      2.00000
     13       0.6382      2.00000
     14       0.6382      2.00000
     15       0.6382      2.00000
     16       0.6382      2.00000
     17       0.6382      2.00000
     18       1.2621      2.00000
     19       1.2621      2.00000
     20       1.2621      2.00000
     21       1.8914      2.00000
     22       1.8914      2.00000
     23       1.8914      2.00000
     24       2.5119      2.00000
     25       2.5119      2.00000
     26       2.5119      2.00000
     27       2.5119      2.00000
     28       2.5119      2.00000
     29       2.5119      2.00000
     30       2.9903      2.00000
     31       2.9903      2.00000
     32       2.9903      2.00000
     33       3.3020      2.00000
     34       3.3020      2.00000
     35       3.3020      2.00000
     36       3.7843      2.00000
     37       3.7843      2.00000
     38       3.7843      2.00000
     39       5.0009      2.00003
     40       5.0009      2.00003
     41       5.0009      2.00003
     42       5.0009      2.00003
     43       5.0009      2.00003
     44       5.0009      2.00003
     45       5.6165      1.40545
     46       5.6165      1.40545
     47       5.6165      1.40545
     48       5.6165      1.40545
     49       5.6165      1.40545
     50       5.6165      1.40545
     51       6.2391     -0.00039
     52       6.7356     -0.00000
     53       6.7356     -0.00000
     54       6.7356     -0.00000
     55       7.0087     -0.00000
     56       7.0087     -0.00000
     57       7.0087     -0.00000
     58       7.4286     -0.00000
     59       7.4286     -0.00000
     60       7.4286     -0.00000
     61       7.5295     -0.00000
     62       7.5295     -0.00000
     63       7.5295     -0.00000
     64       7.5295     -0.00000
     65       7.5295     -0.00000
     66       7.5295     -0.00000
     67       8.0488     -0.00000
     68       8.0502     -0.00000

 soft charge-density along one line, spin component           1
         0         1         2         3         4         5         6         7         8         9
 total charge-density along one line

------------------------ aborting loop because EDIFF is reached ----------------------------------------

  FREE ENERGIE OF THE ION-ELECTRON SYSTEM (eV)
  free  energy   TOTEN  =      -115.035714 eV

  energy  without entropy=     -114.999265  energy(sigma->0) =     -115.023564

  FORCE on cell =-STRESS in cart. coord.  units (eV/reduce length):
  Direction    X        Y        Z        XY       YZ       ZX
  Alpha Z     -5.19     -5.19     -5.19
  Ewald     -726.79   -726.79   -726.79     -0.00     -0.00     -0.00
  Hartree      1.35      1.35      1.35      0.00      0.00      0.00
  E(xc)     -256.70   -256.70   -256.70      0.00      0.00      0.00
  Local      -23.93    -23.93    -23.93      0.00      0.00      0.00
  n-local    586.31    587.51    585.12     -0.70      0.40      0.40
  augment    -37.81    -37.81    -37.81      0.00      0.00      0.00
  Kinetic    407.00    409.51    437.86     -3.08     -8.95     -8.95
  Total      -44.63    -44.63    -44.63     -0.00     -0.00     -0.00
  in kB     -107.83   -107.83   -107.83     -0.00     -0.00     -0.00

 VOLUME and BASIS-vectors are now :
  energy-cutoff  :      600.00
  volume of cell :      663.19
      direct lattice vectors                 reciprocal lattice vectors
     8.720580980  0.000000000  0.000000000     0.114671259 -0.000000002 -0.000000002
     0.000000160  8.720580980  0.000000000     0.000000000  0.114671259 -0.000000002
     0.000000160  0.000000160  8.720580980     0.000000000  0.000000000  0.114671259

  length of vectors
     8.720580980  8.720580980  8.720580980     0.114671259  0.114671259  0.114671259

 FORCES acting on ions
    electron-ion (+dipol)            ewald-force                    non-local-force                 convergence-correction
   -.412E-14 -.601E-12 0.264E-12   -.158E-13 0.328E-14 -.940E-14   -.466E-22 0.160E-22 0.344E-22   0.151E-13 0.414E-14 -.751E-13
   -.552E-14 -.210E-12 0.311E-12   -.128E-13 -.405E-14 -.240E-14   0.595E-22 -.540E-22 0.616E-22   -.462E-15 -.446E-13 0.833E-13
   -.610E-14 0.197E-13 0.342E-13   -.733E-14 0.256E-14 -.322E-14   0.570E-22 -.392E-22 -.265E-22   -.136E-13 -.604E-13 0.470E-14
   -.508E-14 -.769E-13 0.144E-12   -.239E-14 -.133E-14 -.302E-14   0.667E-23 -.520E-22 -.269E-22   0.869E-14 -.559E-14 -.250E-13
   0.658E-14 -.929E-14 -.772E-14   0.346E-14 -.283E-14 -.344E-14   -.558E-22 -.278E-22 0.128E-22   -.297E-13 -.688E-14 -.120E-13
   0.552E-14 0.673E-14 -.929E-15   0.342E-14 -.105E-13 -.342E-14   -.478E-22 -.341E-22 0.116E-22   -.108E-13 -.384E-13 -.402E-13
   -.168E-16 -.119E-12 0.604E-13   -.117E-14 -.107E-13 -.490E-14   0.783E-22 -.307E-22 -.405E-22   -.149E-13 0.269E-14 -.361E-13
   -.538E-14 0.316E-12 -.291E-12   -.163E-13 0.475E-14 0.377E-14   -.717E-22 0.610E-22 0.650E-22   0.869E-14 -.106E-13 -.138E-13
   -.565E-14 0.265E-12 0.446E-13   -.405E-14 -.266E-14 -.761E-15   -.475E-22 0.311E-22 0.662E-23   -.235E-13 0.450E-13 0.339E-13
   -.541E-14 0.155E-12 -.601E-13   0.316E-14 0.994E-14 -.999E-15   -.109E-21 0.302E-22 -.165E-23   -.606E-15 0.610E-13 -.445E-13
   0.714E-14 -.115E-13 -.182E-13   0.842E-14 -.833E-15 0.255E-14   0.324E-23 0.979E-24 -.240E-22   0.100E-13 -.178E-13 0.541E-14
   0.817E-14 0.173E-13 0.198E-13   -.338E-14 0.116E-15 0.999E-15   0.119E-22 -.494E-22 0.505E-22   0.294E-13 -.279E-13 0.472E-13
   0.578E-14 -.126E-14 -.784E-14   -.271E-14 -.383E-14 0.389E-14   0.818E-23 -.373E-22 0.662E-23   0.100E-13 0.684E-14 -.232E-13
   0.725E-14 -.190E-15 0.289E-14   0.110E-14 0.405E-14 -.563E-14   0.172E-22 -.376E-22 -.339E-22   -.929E-14 0.389E-13 -.295E-13
   -.369E-16 0.166E-12 0.792E-13   0.316E-14 -.622E-14 -.512E-14   -.454E-22 0.790E-22 -.807E-23   0.729E-15 -.545E-14 0.428E-13
   0.527E-15 0.206E-13 -.147E-12   0.103E-13 0.137E-15 -.444E-15   -.272E-22 0.209E-22 0.368E-22   0.137E-13 -.204E-13 -.349E-13
   0.385E-15 0.887E-13 0.521E-13   -.133E-14 -.350E-14 -.424E-14   -.468E-22 0.175E-22 0.273E-22   -.859E-14 -.391E-14 -.276E-13
   -.604E-14 -.118E-12 -.137E-13   -.220E-14 -.788E-14 0.144E-14   -.179E-22 0.864E-22 -.486E-23   0.294E-13 0.507E-14 -.285E-13
   -.746E-14 0.615E-14 -.115E-12   0.121E-13 -.353E-14 0.420E-15   0.387E-22 -.301E-22 -.275E-22   0.106E-13 -.312E-13 -.612E-13
   -.539E-14 0.125E-12 -.340E-12   0.572E-14 0.119E-13 0.250E-14   0.851E-22 -.153E-22 0.149E-22   0.511E-14 0.112E-13 0.363E-13
   0.665E-14 -.102E-14 -.158E-13   -.241E-14 0.816E-14 -.555E-15   -.403E-22 -.621E-22 0.456E-22   0.819E-14 0.178E-13 0.163E-13
   0.815E-14 -.518E-14 0.883E-14   -.354E-14 0.149E-13 0.233E-14   -.626E-22 0.299E-22 -.405E-22   -.107E-13 0.272E-13 0.359E-13
   -.135E-15 0.852E-14 0.185E-12   0.400E-14 0.925E-14 0.122E-14   0.578E-22 0.440E-22 0.827E-24   -.862E-14 -.122E-13 0.270E-13
   0.123E-14 -.185E-12 0.396E-13   -.120E-13 -.394E-14 0.446E-14   -.829E-23 -.688E-22 -.281E-22   0.236E-13 0.405E-14 0.350E-13
   0.101E-14 0.118E-13 0.426E-13   -.389E-15 0.143E-13 0.372E-14   -.124E-22 -.534E-22 -.662E-23   0.847E-15 0.216E-13 -.424E-13
   -.624E-14 0.121E-12 0.219E-12   -.219E-14 -.344E-14 0.328E-14   0.120E-23 0.514E-22 0.827E-23   -.103E-13 -.225E-13 0.202E-13
   -.688E-14 0.905E-13 0.266E-12   0.145E-13 -.299E-14 0.294E-14   -.408E-22 0.443E-22 -.869E-23   -.296E-13 -.362E-14 0.709E-13
   -.670E-14 -.677E-13 -.940E-13   0.119E-13 -.278E-14 0.117E-14   -.294E-22 -.131E-22 0.587E-22   -.102E-13 -.714E-14 -.568E-13
   -.548E-14 0.789E-14 -.999E-13   0.925E-14 0.189E-14 0.136E-14   -.498E-22 0.674E-23 -.266E-22   0.899E-14 0.333E-13 -.344E-13
   0.930E-15 0.107E-13 -.725E-13   -.228E-14 0.800E-14 -.167E-14   -.664E-22 0.130E-22 0.298E-22   -.487E-14 0.135E-13 0.357E-13
   -.716E-14 -.560E-13 -.108E-12   0.637E-14 0.344E-14 0.211E-14   -.564E-23 -.496E-22 -.603E-22   -.835E-14 0.204E-13 0.472E-13
   -.694E-14 -.141E-12 0.212E-14   0.123E-13 0.108E-13 0.498E-14   0.612E-22 -.129E-22 0.602E-22   0.104E-13 0.556E-14 0.425E-13
   -.364E-13 -.167E-12 0.383E-12   0.168E-13 0.364E-13 -.607E-14   -.345E-21 -.135E-21 0.167E-21   -.525E-15 -.526E-15 -.922E-15

 POSITION                                       TOTAL-FORCE (eV/Angst)
      6.54044      6.54044      4.36029         0.000000     -0.000000      0.000000
      6.54044      6.54044      0.00000        -0.000000     -0.000000     -0.000000
      6.54044      0.00000      2.18015        -0.000000      0.000000      0.000000
      6.54044      2.18015      4.36029         0.000000     -0.000000     -0.000000
      0.00000      6.54044      2.18015        -0.000000     -0.000000     -0.000000
      0.00000      0.00000      4.36029        -0.000000     -0.000000     -0.000000
      2.18015      6.54044      4.36029         0.000000     -0.000000     -0.000000
      6.54044      0.00000      6.54044         0.000000      0.000000     -0.000000
      6.54044      2.18015      0.00000         0.000000      0.000000      0.000000
      6.54044      4.36029      2.18015        -0.000000     -0.000000     -0.000000
      0.00000      6.54044      6.54044        -0.000000     -0.000000     -0.000000
      0.00000      0.00000      0.00000        -0.000000     -0.000000     -0.000000
      0.00000      2.18015      2.18015        -0.000000     -0.000000     -0.000000
      0.00000      4.36029      4.36029         0.000000      0.000000      0.000000
      2.18015      6.54044      0.00000        -0.000000      0.000000     -0.000000
      2.18015      0.00000      2.18015        -0.000000      0.000000     -0.000000
      2.18015      2.18015      4.36029         0.000000     -0.000000     -0.000000
      4.36029      6.54044      2.18015         0.000000     -0.000000      0.000000
      4.36029      0.00000      4.36029         0.000000     -0.000000     -0.000000
      6.54044      4.36029      6.54044         0.000000     -0.000000      0.000000
      0.00000      2.18015      6.54044         0.000000      0.000000      0.000000
      0.00000      4.36029      0.00000         0.000000      0.000000     -0.000000
      2.18015      0.00000      6.54044         0.000000      0.000000      0.000000
      2.18015      2.18015      0.00000        -0.000000     -0.000000      0.000000
      2.18015      4.36029      2.18015        -0.000000      0.000000      0.000000
      4.36029      6.54044      6.54044         0.000000      0.000000      0.000000
      4.36029      0.00000      0.00000         0.000000      0.000000     -0.000000
      4.36029      2.18015      2.18015        -0.000000      0.000000     -0.000000
      4.36029      4.36029      4.36029         0.000000     -0.000000     -0.000000
      2.18015      4.36029      6.54044         0.000000     -0.000000     -0.000000
      4.36029      2.18015      6.54044         0.000000      0.000000      0.000000
      4.36029      4.36029      0.00000        -0.000000     -0.000000     -0.000000
    total drift:                               -0.000000     -0.000000      0.000000

 reached required accuracy - stopping structural energy minimisation
 writing wavefunctions