 vasp.4.6.28 25Jul05 complex
 executed on             LinuxIFC date 2017.01.14  10:59:04

 INCAR:
 POTCAR:   PAW_PBE Al 04Jan2001
 POTCAR:   PAW_PBE Al 04Jan2001
   VRHFIN =Al: s2p1

   TITEL  = PAW_PBE Al 04Jan2001
   POMASS =   26.982; ZVAL   =    3.000    mass and valenz
   ENMAX  =  240.300; ENMIN  =  180.225 eV
   QCUT   =   -4.203; QGAM   =    8.405    optimization parameters

   Description
     l     E      TYP  RCUT    TYP  RCUT
     0   .000     23  1.900
     0   .000     23  1.900
     1   .000     23  1.900
     1  1.000     23  1.900
     2   .000      7  1.900

 PAW_PBE Al 04Jan2001                   :

 POSCAR: Al
  positions in direct lattice

 ion  position               nearest neighbor table
   1  0.500  0.500  0.000-   2 3.11   3 3.11   4 3.11   2 3.11   3 3.11   2 3.11   4 3.11   2 3.11
                             3 3.11   4 3.11   3 3.11   4 3.11
   2  0.500  0.000  0.500-   1 3.11   3 3.11   4 3.11   1 3.11   4 3.11   1 3.11   3 3.11   1 3.11
                             3 3.11   4 3.11   4 3.11   3 3.11
   3  0.000  0.500  0.500-   1 3.11   2 3.11   4 3.11   1 3.11   4 3.11   2 3.11   4 3.11   4 3.11
                             1 3.11   2 3.11   1 3.11   2 3.11
   4  0.000  0.000  0.000-   1 3.11   2 3.11   3 3.11   2 3.11   3 3.11   1 3.11   3 3.11   3 3.11
                             1 3.11   2 3.11   2 3.11   1 3.11

  LATTYP: Found a simple cubic cell.
 ALAT       =     4.4034418184

  Lattice vectors:

 A1 = (   4.4034418184,   0.0000000000,   0.0000000000)
 A2 = (   0.0000000000,   4.4034418184,   0.0000000000)
 A3 = (   0.0000000000,   0.0000000000,   4.4034418184)
 Subroutine PRICEL returns following result:

  LATTYP: Found a face centered cubic cell.
 ALAT       =     4.4034418184

  Lattice vectors:

 A1 = (   2.2017209092,   2.2017209092,  -0.0000000000)
 A2 = (   2.2017209092,   0.0000000000,  -2.2017209092)
 A3 = (   0.0000000000,   2.2017209092,  -2.2017209092)

   4 primitive cells build up your supercell.

Analysis of symmetry for initial positions (statically):

 Routine SETGRP: Setting up the symmetry group for a
 simple cubic supercell.

 Subroutine GETGRP returns: Found 48 space group operations
 (whereof 48 operations were pure point group operations)
 out of a pool of 48 trial point group operations.

The static configuration has the point symmetry O_h .

Analysis of symmetry for dynamics (positions and initial velocities):

 Subroutine DYNSYM returns: Found 48 space group operations
 (whereof 48 operations were pure point group operations)
 out of a pool of 48 trial space group operations
 (whereof 48 operations were pure point group operations)
 and found also     4 'primitive' translations

The dynamic configuration has the point symmetry O_h .

 KPOINTS: Automatic mesh

Automatic generation of k-mesh.

 Subroutine IBZKPT returns following result:

 Found   1330 irreducible k-points:

 Following reciprocal coordinates:
            Coordinates               Weight
  0.000000  0.000000  0.000000      1.000000
  0.027778  0.000000  0.000000      6.000000
  0.055556  0.000000  0.000000      6.000000
  0.083333  0.000000  0.000000      6.000000
  0.111111  0.000000  0.000000      6.000000
  0.138889  0.000000  0.000000      6.000000
  0.166667  0.000000  0.000000      6.000000
  0.194444  0.000000  0.000000      6.000000
  0.222222  0.000000  0.000000      6.000000
  0.250000  0.000000  0.000000      6.000000
  0.277778  0.000000  0.000000      6.000000
  0.305556  0.000000  0.000000      6.000000
  0.333333  0.000000  0.000000      6.000000
  0.361111  0.000000  0.000000      6.000000
  0.388889  0.000000  0.000000      6.000000
  0.416667  0.000000  0.000000      6.000000
  0.444444  0.000000  0.000000      6.000000
  0.472222  0.000000  0.000000      6.000000
  0.500000  0.000000  0.000000      3.000000
  0.027778  0.027778  0.000000     12.000000
  0.055556  0.027778  0.000000     24.000000
  0.083333  0.027778  0.000000     24.000000
  0.111111  0.027778  0.000000     24.000000
  0.138889  0.027778  0.000000     24.000000
  0.166667  0.027778  0.000000     24.000000
  0.194444  0.027778  0.000000     24.000000
  0.222222  0.027778  0.000000     24.000000
  0.250000  0.027778  0.000000     24.000000
  0.277778  0.027778  0.000000     24.000000
  0.305556  0.027778  0.000000     24.000000
  0.333333  0.027778  0.000000     24.000000
  0.361111  0.027778  0.000000     24.000000
  0.388889  0.027778  0.000000     24.000000
  0.416667  0.027778  0.000000     24.000000
  0.444444  0.027778  0.000000     24.000000
  0.472222  0.027778  0.000000     24.000000
  0.500000  0.027778  0.000000     12.000000
  0.055556  0.055556  0.000000     12.000000
  0.083333  0.055556  0.000000     24.000000
  0.111111  0.055556  0.000000     24.000000
  0.138889  0.055556  0.000000     24.000000
  0.166667  0.055556  0.000000     24.000000
  0.194444  0.055556  0.000000     24.000000
  0.222222  0.055556  0.000000     24.000000
  0.250000  0.055556  0.000000     24.000000
  0.277778  0.055556  0.000000     24.000000
  0.305556  0.055556  0.000000     24.000000
  0.333333  0.055556  0.000000     24.000000
  0.361111  0.055556  0.000000     24.000000
  0.388889  0.055556  0.000000     24.000000
  0.416667  0.055556  0.000000     24.000000
  0.444444  0.055556  0.000000     24.000000
  0.472222  0.055556  0.000000     24.000000
  0.500000  0.055556  0.000000     12.000000
  0.083333  0.083333  0.000000     12.000000
  0.111111  0.083333  0.000000     24.000000
  0.138889  0.083333  0.000000     24.000000
  0.166667  0.083333  0.000000     24.000000
  0.194444  0.083333  0.000000     24.000000
  0.222222  0.083333  0.000000     24.000000
[...]
  0.472222  0.444444  0.416667     48.000000
  0.500000  0.444444  0.416667     24.000000
  0.472222  0.472222  0.416667     24.000000
  0.500000  0.472222  0.416667     24.000000
  0.500000  0.500000  0.416667      6.000000
  0.444444  0.444444  0.444444      8.000000
  0.472222  0.444444  0.444444     24.000000
  0.500000  0.444444  0.444444     12.000000
  0.472222  0.472222  0.444444     24.000000
  0.500000  0.472222  0.444444     24.000000
  0.500000  0.500000  0.444444      6.000000
  0.472222  0.472222  0.472222      8.000000
  0.500000  0.472222  0.472222     12.000000
  0.500000  0.500000  0.472222      6.000000
  0.500000  0.500000  0.500000      1.000000

 Following cartesian coordinates:
            Coordinates               Weight
  0.000000  0.000000  0.000000      1.000000
  0.006876  0.000000  0.000000      6.000000
  0.013752  0.000000  0.000000      6.000000
  0.020628  0.000000  0.000000      6.000000
  0.027504  0.000000  0.000000      6.000000
  0.034380  0.000000  0.000000      6.000000
  0.041256  0.000000  0.000000      6.000000
  0.048132  0.000000  0.000000      6.000000
  0.055007  0.000000  0.000000      6.000000
  0.061883  0.000000  0.000000      6.000000
  0.068759  0.000000  0.000000      6.000000
  0.075635  0.000000  0.000000      6.000000
  0.082511  0.000000  0.000000      6.000000
  0.089387  0.000000  0.000000      6.000000
  0.096263  0.000000  0.000000      6.000000
  0.103139  0.000000  0.000000      6.000000
  0.110015  0.000000  0.000000      6.000000
  0.116891  0.000000  0.000000      6.000000
  0.123767  0.000000  0.000000      3.000000
  0.006876  0.006876  0.000000     12.000000
  0.013752  0.006876  0.000000     24.000000
  0.020628  0.006876  0.000000     24.000000
  0.027504  0.006876  0.000000     24.000000
  0.034380  0.006876  0.000000     24.000000
  0.041256  0.006876  0.000000     24.000000
  0.048132  0.006876  0.000000     24.000000
  0.055007  0.006876  0.000000     24.000000
  0.061883  0.006876  0.000000     24.000000
  0.068759  0.006876  0.000000     24.000000
  0.075635  0.006876  0.000000     24.000000
  0.082511  0.006876  0.000000     24.000000
  0.089387  0.006876  0.000000     24.000000
  0.096263  0.006876  0.000000     24.000000
  0.103139  0.006876  0.000000     24.000000
  0.110015  0.006876  0.000000     24.000000
  0.116891  0.006876  0.000000     24.000000
  0.123767  0.006876  0.000000     12.000000
  0.013752  0.013752  0.000000     12.000000
  0.020628  0.013752  0.000000     24.000000
  0.027504  0.013752  0.000000     24.000000
  0.034380  0.013752  0.000000     24.000000
  0.041256  0.013752  0.000000     24.000000
  0.048132  0.013752  0.000000     24.000000
  0.055007  0.013752  0.000000     24.000000
  0.061883  0.013752  0.000000     24.000000
  0.068759  0.013752  0.000000     24.000000
  0.075635  0.013752  0.000000     24.000000
  0.082511  0.013752  0.000000     24.000000
  0.089387  0.013752  0.000000     24.000000
  0.096263  0.013752  0.000000     24.000000
  0.103139  0.013752  0.000000     24.000000
  0.110015  0.013752  0.000000     24.000000
  0.116891  0.013752  0.000000     24.000000
  0.123767  0.013752  0.000000     12.000000
  0.020628  0.020628  0.000000     12.000000
  0.027504  0.020628  0.000000     24.000000
  0.034380  0.020628  0.000000     24.000000
  0.041256  0.020628  0.000000     24.000000
  0.048132  0.020628  0.000000     24.000000
  0.055007  0.020628  0.000000     24.000000
[...]
  0.116891  0.110015  0.103139     48.000000
  0.123767  0.110015  0.103139     24.000000
  0.116891  0.116891  0.103139     24.000000
  0.123767  0.116891  0.103139     24.000000
  0.123767  0.123767  0.103139      6.000000
  0.110015  0.110015  0.110015      8.000000
  0.116891  0.110015  0.110015     24.000000
  0.123767  0.110015  0.110015     12.000000
  0.116891  0.116891  0.110015     24.000000
  0.123767  0.116891  0.110015     24.000000
  0.123767  0.123767  0.110015      6.000000
  0.116891  0.116891  0.116891      8.000000
  0.123767  0.116891  0.116891     12.000000
  0.123767  0.123767  0.116891      6.000000
  0.123767  0.123767  0.123767      1.000000

 I would recommend the setting:
   dimension x,y,z NGX =    45 NGY =   45 NGZ =   45
 SYSTEM =  unknown system
 POSCAR =  Al

 Startparameter for this run:
   NWRITE =      2    write-flag & timer
   PREC   = accura    medium, high low
   ISTART =      0    job   : 0-new  1-cont  2-samecut
   ICHARG =      2    charge: 1-file 2-atom 10-const
   ISPIN  =      1    spin polarized calculation?
   LNONCOLLINEAR =      F non collinear calculations
   LSORBIT =      F    spin-orbit coupling
   INIWAV =      1    electr: 0-lowe 1-rand  2-diag
   LASPH  =      F    aspherical Exc in radial PAW
   METAGGA=      F    non-selfconsistent MetaGGA calc.

 Electronic Relaxation 1
   ENCUT  = 1000.0 eV  73.50 Ry    8.57 a.u.  11.35 11.35 11.35*2*pi/ulx,y,z
   ENINI  = 1000.0     initial cutoff
   ENAUG  =  291.1 eV  augmentation charge cutoff
   NELM   =     60;   NELMIN=  2; NELMDL=  0     # of ELM steps
   EDIFF  = 0.1E-07   stopping-criterion for ELM
   LREAL  =      F    real-space projection
   LCOMPAT=      F    compatible to vasp.4.4
   LREAL_COMPAT= F    compatible to vasp.4.5.1-3
   GGA_COMPAT  = T    GGA compatible to vasp.4.4-vasp.4.6
   LMAXPAW     = -100 max onsite density
   LMAXMIX     =    2 max onsite mixed and CHGCAR
   VOSKOWN=      0    Vosko Wilk Nusair interpolation
   ROPT   =    0.00000
 Ionic relaxation
   EDIFFG = 0.1E-06   stopping-criterion for IOM
[...]

 k-point  1 :  0.00000.00000.0000  plane waves:   6043
 k-point  2 :  0.02780.00000.0000  plane waves:   6111
 k-point  3 :  0.05560.00000.0000  plane waves:   6119
 k-point  4 :  0.08330.00000.0000  plane waves:   6123
 k-point  5 :  0.11110.00000.0000  plane waves:   6131
 k-point  6 :  0.13890.00000.0000  plane waves:   6135
 k-point  7 :  0.16670.00000.0000  plane waves:   6131
 k-point  8 :  0.19440.00000.0000  plane waves:   6119
 k-point  9 :  0.22220.00000.0000  plane waves:   6135
 k-point 10 :  0.25000.00000.0000  plane waves:   6135
 k-point 11 :  0.27780.00000.0000  plane waves:   6139
 k-point 12 :  0.30560.00000.0000  plane waves:   6139
 k-point 13 :  0.33330.00000.0000  plane waves:   6127
 k-point 14 :  0.36110.00000.0000  plane waves:   6138
 k-point 15 :  0.38890.00000.0000  plane waves:   6146
 k-point 16 :  0.41670.00000.0000  plane waves:   6154
 k-point 17 :  0.44440.00000.0000  plane waves:   6142
 k-point 18 :  0.47220.00000.0000  plane waves:   6134
 k-point 19 :  0.50000.00000.0000  plane waves:   6126
 k-point 20 :  0.02780.02780.0000  plane waves:   6107
 k-point 21 :  0.05560.02780.0000  plane waves:   6111
 k-point 22 :  0.08330.02780.0000  plane waves:   6122
 k-point 23 :  0.11110.02780.0000  plane waves:   6135
 k-point 24 :  0.13890.02780.0000  plane waves:   6132
 k-point 25 :  0.16670.02780.0000  plane waves:   6128
 k-point 26 :  0.19440.02780.0000  plane waves:   6129
 k-point 27 :  0.22220.02780.0000  plane waves:   6126
 k-point 28 :  0.25000.02780.0000  plane waves:   6140
 k-point 29 :  0.27780.02780.0000  plane waves:   6140
 k-point 30 :  0.30560.02780.0000  plane waves:   6135
 k-point 31 :  0.33330.02780.0000  plane waves:   6140
 k-point 32 :  0.36110.02780.0000  plane waves:   6140
 k-point 33 :  0.38890.02780.0000  plane waves:   6143
 k-point 34 :  0.41670.02780.0000  plane waves:   6145
 k-point 35 :  0.44440.02780.0000  plane waves:   6134
 k-point 36 :  0.47220.02780.0000  plane waves:   6128
 k-point 37 :  0.50000.02780.0000  plane waves:   6138
 k-point 38 :  0.05560.05560.0000  plane waves:   6118
 k-point 39 :  0.08330.05560.0000  plane waves:   6131
 k-point 40 :  0.11110.05560.0000  plane waves:   6140
 k-point 41 :  0.13890.05560.0000  plane waves:   6137
 k-point 42 :  0.16670.05560.0000  plane waves:   6136
 k-point 43 :  0.19440.05560.0000  plane waves:   6131
 k-point 44 :  0.22220.05560.0000  plane waves:   6124
 k-point 45 :  0.25000.05560.0000  plane waves:   6134
 k-point 46 :  0.27780.05560.0000  plane waves:   6135
 k-point 47 :  0.30560.05560.0000  plane waves:   6132
 k-point 48 :  0.33330.05560.0000  plane waves:   6138
 k-point 49 :  0.36110.05560.0000  plane waves:   6136
 k-point 50 :  0.38890.05560.0000  plane waves:   6126
 k-point 51 :  0.41670.05560.0000  plane waves:   6137
 k-point 52 :  0.44440.05560.0000  plane waves:   6133
 k-point 53 :  0.47220.05560.0000  plane waves:   6129
 k-point 54 :  0.50000.05560.0000  plane waves:   6122
 k-point 55 :  0.08330.08330.0000  plane waves:   6136
 k-point 56 :  0.11110.08330.0000  plane waves:   6144
 k-point 57 :  0.13890.08330.0000  plane waves:   6135
 k-point 58 :  0.16670.08330.0000  plane waves:   6133
 k-point 59 :  0.19440.08330.0000  plane waves:   6135
 k-point 60 :  0.22220.08330.0000  plane waves:   6138
[...]
 k-point 85 :  0.50000.11110.0000  plane waves:   6138
 k-point 86 :  0.13890.13890.0000  plane waves:   6138
 k-point 87 :  0.16670.13890.0000  plane waves:   6125
 k-point 88 :  0.19440.13890.0000  plane waves:   6131
 k-point 89 :  0.22220.13890.0000  plane waves:   6131
 k-point 90 :  0.25000.13890.0000  plane waves:   6133
 k-point 91 :  0.27780.13890.0000  plane waves:   6138
 k-point 92 :  0.30560.13890.0000  plane waves:   6137
 k-point 93 :  0.33330.13890.0000  plane waves:   6138
 k-point 94 :  0.36110.13890.0000  plane waves:   6139
 k-point 95 :  0.38890.13890.0000  plane waves:   6142
 k-point 96 :  0.41670.13890.0000  plane waves:   6142
 k-point 97 :  0.44440.13890.0000  plane waves:   6143
 k-point 98 :  0.47220.13890.0000  plane waves:   6150
 k-point 99 :  0.50000.13890.0000  plane waves:   6146
 k-point ** :  0.16670.16670.0000  plane waves:   6124
 k-point ** :  0.19440.16670.0000  plane waves:   6127
 k-point ** :  0.22220.16670.0000  plane waves:   6137
 k-point ** :  0.25000.16670.0000  plane waves:   6137
 k-point ** :  0.27780.16670.0000  plane waves:   6143
 k-point ** :  0.30560.16670.0000  plane waves:   6133
 k-point ** :  0.33330.16670.0000  plane waves:   6140
 k-point ** :  0.36110.16670.0000  plane waves:   6137
 k-point ** :  0.38890.16670.0000  plane waves:   6141
 k-point ** :  0.41670.16670.0000  plane waves:   6138
 k-point ** :  0.44440.16670.0000  plane waves:   6159
 k-point ** :  0.47220.16670.0000  plane waves:   6144
 k-point ** :  0.50000.16670.0000  plane waves:   6142
 k-point ** :  0.19440.19440.0000  plane waves:   6130
 k-point ** :  0.22220.19440.0000  plane waves:   6138
 k-point ** :  0.25000.19440.0000  plane waves:   6146
 k-point ** :  0.27780.19440.0000  plane waves:   6139
 k-point ** :  0.30560.19440.0000  plane waves:   6138
 k-point ** :  0.33330.19440.0000  plane waves:   6131
 k-point ** :  0.36110.19440.0000  plane waves:   6127
 k-point ** :  0.38890.19440.0000  plane waves:   6127
 k-point ** :  0.41670.19440.0000  plane waves:   6131
 k-point ** :  0.44440.19440.0000  plane waves:   6147
 k-point ** :  0.47220.19440.0000  plane waves:   6148
 k-point ** :  0.50000.19440.0000  plane waves:   6150
 k-point ** :  0.22220.22220.0000  plane waves:   6144
 k-point ** :  0.25000.22220.0000  plane waves:   6143
 k-point ** :  0.27780.22220.0000  plane waves:   6143
 k-point ** :  0.30560.22220.0000  plane waves:   6136
 k-point ** :  0.33330.22220.0000  plane waves:   6137
 k-point ** :  0.36110.22220.0000  plane waves:   6132
 k-point ** :  0.38890.22220.0000  plane waves:   6133
 k-point ** :  0.41670.22220.0000  plane waves:   6133
 k-point ** :  0.44440.22220.0000  plane waves:   6136
 k-point ** :  0.47220.22220.0000  plane waves:   6147
 k-point ** :  0.50000.22220.0000  plane waves:   6138
 k-point ** :  0.25000.25000.0000  plane waves:   6126
 k-point ** :  0.27780.25000.0000  plane waves:   6133
 k-point ** :  0.30560.25000.0000  plane waves:   6132
 k-point ** :  0.33330.25000.0000  plane waves:   6130
 k-point ** :  0.36110.25000.0000  plane waves:   6130
 k-point ** :  0.38890.25000.0000  plane waves:   6132
 k-point ** :  0.41670.25000.0000  plane waves:   6145
 k-point ** :  0.44440.25000.0000  plane waves:   6145
 k-point ** :  0.47220.25000.0000  plane waves:   6147
 k-point ** :  0.50000.25000.0000  plane waves:   6158
 k-point ** :  0.27780.27780.0000  plane waves:   6126
 k-point ** :  0.30560.27780.0000  plane waves:   6132
 k-point ** :  0.33330.27780.0000  plane waves:   6122
 k-point ** :  0.36110.27780.0000  plane waves:   6135
 k-point ** :  0.38890.27780.0000  plane waves:   6137
 k-point ** :  0.41670.27780.0000  plane waves:   6143
 k-point ** :  0.44440.27780.0000  plane waves:   6143
 k-point ** :  0.47220.27780.0000  plane waves:   6145
 k-point ** :  0.50000.27780.0000  plane waves:   6148
 k-point ** :  0.30560.30560.0000  plane waves:   6134
 k-point ** :  0.33330.30560.0000  plane waves:   6126
 k-point ** :  0.36110.30560.0000  plane waves:   6121
 k-point ** :  0.38890.30560.0000  plane waves:   6137
 k-point ** :  0.41670.30560.0000  plane waves:   6139
[...]
 k-point ** :  0.47220.44440.4167  plane waves:   6090
 k-point ** :  0.50000.44440.4167  plane waves:   6092
 k-point ** :  0.47220.47220.4167  plane waves:   6099
 k-point ** :  0.50000.47220.4167  plane waves:   6084
 k-point ** :  0.50000.50000.4167  plane waves:   6088
 k-point ** :  0.44440.44440.4444  plane waves:   6094
 k-point ** :  0.47220.44440.4444  plane waves:   6090
 k-point ** :  0.50000.44440.4444  plane waves:   6096
 k-point ** :  0.47220.47220.4444  plane waves:   6090
 k-point ** :  0.50000.47220.4444  plane waves:   6082
 k-point ** :  0.50000.50000.4444  plane waves:   6088
 k-point ** :  0.47220.47220.4722  plane waves:   6092
 k-point ** :  0.50000.47220.4722  plane waves:   6100
 k-point ** :  0.50000.50000.4722  plane waves:   6096
 k-point ** :  0.50000.50000.5000  plane waves:   6152

 maximum and minimum number of plane-waves per node :   6160  6043

 maximum number of plane-waves:   6160
 maximal index in each direction:
   IXMAX= 11   IYMAX= 11   IZMAX= 11
   IXMIN=-11   IYMIN=-11   IZMIN=-11

 NGX is ok and might be reduce to  46
 NGY is ok and might be reduce to  46
 NGZ is ok and might be reduce to  46

 parallel 3dFFT wavefunction:
    minimum data exchange during FFTs selected (reduces bandwidth)
 parallel 3dFFT charge:
    minimum data exchange during FFTs selected (reduces bandwidth)

Broyden mixing: mesh for mixing (old mesh)
   NGX = 23   NGY = 23   NGZ = 23
  (NGX  = 96   NGY  = 96   NGZ  = 96)
 gives a total of  12167 points
 initial charge density was supplied:
 charge density of overlapping atoms calculated
 number of electron   12.0000000 magnetization
 keeping initial charge density in first step

 Maximum index for augmentation-charges        49103 (set IRDMAX)

 First call to EWALD:  gamma=   0.403
 Maximum number of real-space cells 3x 3x 3
 Maximum number of reciprocal cells 3x 3x 3

----------------------------------------- Iteration    1(   1)  ---------------------------------------

 eigenvalue-minimisations  : 42560
 total energy-change (2. order) : 0.1113097E+02  (-0.5808058E+03)
 number of electron   12.0000000 magnetization
 augmentation part    12.0000000 magnetization

 Free energy of the ion-electron system (eV)
  alpha Z        PSCENC =        -0.62940312
  Ewald energy   TEWEN  =      -269.87496296
  -1/2 Hartree   DENC   =        -1.11165986
  -V(xc)+E(xc)   XCENC  =      -106.70974353
  PAW double counting   =       142.21701965      -14.39593217
  entropy T*S    EENTRO =        -0.00004802
  eigenvalues    EBANDS =        47.48107868
  atomic energy  EATOM  =       214.15461818
  free energy    TOTEN  =        11.13096687 eV

  energy without entropy =       11.13101489  energy(sigma->0) =       11.13099088

[...]

 eigenvalue-minimisations  : 54352
 total energy-change (2. order) :-0.2443847E+02  (-0.2280996E+02)
 number of electron   12.0000000 magnetization
 augmentation part    12.0000000 magnetization

[...]

 Broyden mixing:
  rms(total) = 0.16341E+00    rms(broyden)= 0.16341E+00
  rms(prec ) = 0.38897E+00
  weight for this iteration     100.00

[...]

 eigenvalues of (default mixing * dielectric matrix)
  average eigenvalue GAMMA=   2.6119
  2.6119

[...]

 eigenvalue-minimisations  : 33960
 total energy-change (2. order) :-0.3495836E-07  (-0.5223892E-10)
 number of electron   12.0000000 magnetization
 augmentation part    -0.1826750 magnetization

 Broyden mixing:
  rms(total) = 0.10885E-05    rms(broyden)= 0.10885E-05
  rms(prec ) = 0.22550E-05
  weight for this iteration     100.00

 eigenvalues of (default mixing * dielectric matrix)
  average eigenvalue GAMMA=   1.9099
  2.7319  2.7319  2.5623  2.3957  1.0028  1.0028  0.9420

[...]

----------------------------------------- Iteration    1(  13)  ---------------------------------------

 eigenvalue-minimisations  : 29832
 total energy-change (2. order) : 0.2646402E-08  (-0.9823758E-11)
 number of electron   12.0000000 magnetization
 augmentation part    -0.1826750 magnetization

 Free energy of the ion-electron system (eV)
  alpha Z        PSCENC =        -0.62940312
  Ewald energy   TEWEN  =      -269.87496296
  -1/2 Hartree   DENC   =        -0.56000633
  -V(xc)+E(xc)   XCENC  =      -106.49679694
  PAW double counting   =       140.62894985      -12.74923221
  entropy T*S    EENTRO =        -0.00012844
  eigenvalues    EBANDS =        21.38860218
  atomic energy  EATOM  =       214.15461818
  free energy    TOTEN  =       -14.13835979 eV

  energy without entropy =      -14.13823135  energy(sigma->0) =      -14.13829557

 average (electrostatic) potential at core
  the test charge radii are     1.0406
  (the norm of the test charge is              1.0000)
       1 -75.3874       2 -75.3874       3 -75.3874       4 -75.3874

 E-fermi :   5.5302     XC(G=0):  -9.2969     alpha+bet :-11.4991
   add alpha+bet to get absolut eigen values

 k-point   1 :       0.0000    0.0000    0.0000
  band No.  band energies     occupation
      1      -3.9141      2.00000
      2       3.2539      2.00000
      3       3.2539      2.00000
      4       3.2539      2.00000
      5       3.8871      2.00000
      6       3.8871      2.00000
      7       3.8871      2.00000
      8      10.0927      0.00000
      9      10.0927      0.00000
     10      10.0927      0.00000
     11      10.0927      0.00000
     12      10.0927      0.00000
     13      10.0927      0.00000
     14      10.7424      0.00000
     15      10.7424      0.00000
     16      10.7424      0.00000

[...]

 k-point *** :       0.5000    0.5000    0.5000
  band No.  band energies     occupation
      1       1.4886      2.00000
      2       1.4886      2.00000
      3       1.4886      2.00000
      4       1.4886      2.00000
      5       1.9474      2.00000
      6       1.9474      2.00000
      7       1.9474      2.00000
      8       1.9474      2.00000
      9      14.5200      0.00000
     10      14.5200      0.00000
     11      14.5200      0.00000
     12      14.5200      0.00000
     13      14.5200      0.00000
     14      14.5200      0.00000
     15      14.5200      0.00000
     16      14.5200      0.00000

 soft charge-density along one line, spin component           1
         0         1         2         3         4         5         6         7         8         9
 total charge-density along one line

------------------------ aborting loop because EDIFF is reached ----------------------------------------

  FREE ENERGIE OF THE ION-ELECTRON SYSTEM (eV)
  free  energy   TOTEN  =       -14.138360 eV

  energy  without entropy=      -14.138231  energy(sigma->0) =      -14.138296

  FORCE on cell =-STRESS in cart. coord.  units (eV/reduce length):
  Direction    X        Y        Z        XY       YZ       ZX
  Alpha Z     -0.63     -0.63     -0.63
  Ewald      -89.96    -89.96    -89.96     -0.00     -0.00     -0.00
  Hartree      0.19      0.19      0.19      0.00     -0.00     -0.00
  E(xc)      -31.88    -31.88    -31.88     -0.00     -0.00     -0.00
  Local       -3.76     -3.76     -3.76     -0.00      0.00     -0.00
  n-local     73.23     73.55     74.47     -0.19     -0.10     -0.14
  augment     -4.89     -4.89     -4.89      0.00      0.00      0.00
  Kinetic     49.04     51.08     54.31      1.58     -7.33     -1.67
  Total       -5.71     -5.71     -5.71     -0.00      0.00     -0.00
  in kB     -107.09   -107.09   -107.09     -0.00      0.00     -0.00

 VOLUME and BASIS-vectors are now :
  energy-cutoff  :     1000.00
  volume of cell :       85.38
      direct lattice vectors                 reciprocal lattice vectors
     4.403441818  0.000000000  0.000000000     0.227095086  0.000000000  0.000000000
     0.000000000  4.403441818  0.000000000     0.000000000  0.227095086  0.000000000
     0.000000000  0.000000000  4.403441818     0.000000000  0.000000000  0.227095086

  length of vectors
     4.403441818  4.403441818  4.403441818     0.227095086  0.227095086  0.227095086

 FORCES acting on ions
    electron-ion (+dipol)            ewald-force                    non-local-force                 convergence-correction
   -.538E-14 -.470E-13 -.579E-13   -.296E-15 -.103E-15 -.177E-15   -.323E-26 -.808E-27 0.162E-26   0.347E-15 -.246E-16 -.927E-16
   -.613E-14 0.235E-15 -.165E-13   -.239E-15 0.244E-15 0.272E-15   -.485E-26 0.162E-26 -.343E-26   0.332E-15 0.251E-16 0.915E-16
   0.192E-14 -.355E-14 -.482E-14   0.217E-15 -.273E-15 0.263E-15   -.162E-26 0.202E-26 -.646E-26   -.344E-15 -.229E-16 0.915E-16
   0.198E-14 -.116E-16 -.335E-15   0.274E-15 0.735E-16 -.417E-15   0.000E+00 0.646E-26 -.485E-26   -.333E-15 0.207E-16 -.941E-16
   -.761E-14 -.503E-13 -.795E-13   -.447E-16 -.587E-16 -.602E-16   -.969E-26 0.929E-26 -.131E-25   0.240E-17 -.174E-17 -.373E-17

 POSITION                                       TOTAL-FORCE (eV/Angst)
      2.20172      2.20172      0.00000        -0.000000      0.000000      0.000000
      2.20172      0.00000      2.20172        -0.000000      0.000000     -0.000000
      0.00000      2.20172      2.20172         0.000000     -0.000000      0.000000
      0.00000      0.00000      0.00000         0.000000      0.000000      0.000000
    total drift:                               -0.000000     -0.000000     -0.000000

 mean value of Nose-termostat <S>:     1.000 mean value of <T> :     0.000
 mean temperature <T/S>/<1/S>  :     0.000