 vasp.4.6.28 25Jul05 complex
 executed on             LinuxIFC date 2017.01.25  11:10:29

 INCAR:
 POTCAR:   PAW_PBE Au 06Sep2000
 POTCAR:   PAW_PBE Au 06Sep2000
   VRHFIN =Au: s1d10

   TITEL  = PAW_PBE Au 06Sep2000
   POMASS =  196.966; ZVAL   =   11.000    mass and valenz
   ENMAX  =  229.948; ENMIN  =  172.461 eV
   QCUT   =   -4.111; QGAM   =    8.222    optimization parameters

   Description
     l     E      TYP  RCUT    TYP  RCUT
     2   .000     23  2.500
     2   .000     23  2.500
     0   .000     23  2.500
     0   .000     23  2.500
     1  -.200     23  2.500
     1   .000     23  2.500
     3   .000      7   .000

 PAW_PBE Au 06Sep2000                   :

 POSCAR: No title
  positions in direct lattice

 ion  position               nearest neighbor table
   1  0.750  0.750  0.500-   3 3.12  14 3.12  19 3.12  20 3.12   5 3.12  26 3.12  11 3.12   6 3.12
                            18 3.12  29 3.12  10 3.12   8 3.12
   2  0.750  0.750  0.000-  12 3.11  10 3.12   8 3.12  22 3.12  27 3.12  11 3.12  18 3.12  26 3.12
                             5 3.12  32 3.12   3 3.12  20 3.12
   3  0.750  0.000  0.250-  12 3.11   5 3.12   9 3.12   1 3.12  28 3.12  19 3.12  18 3.12   6 3.12
                            27 3.12  13 3.12   4 3.12   2 3.12
   4  0.750  0.250  0.500-   6 3.12   8 3.12  10 3.12  29 3.12  13 3.12  31 3.12  21 3.12  28 3.12
                            14 3.12  19 3.12   3 3.12  20 3.12
   5  0.000  0.750  0.250-   3 3.12  14 3.12  25 3.12  15 3.12   1 3.12   2 3.12   7 3.12  16 3.12
                            10 3.12  22 3.12   6 3.12  12 3.12
   6  0.000  0.000  0.500-   4 3.12   7 3.12  11 3.12  13 3.12   8 3.12  16 3.12   1 3.12   3 3.12
                            17 3.12  23 3.12  21 3.12   5 3.12
   7  0.250  0.750  0.500-   6 3.12  16 3.12  29 3.12  30 3.12  11 3.12  18 3.12  19 3.12  26 3.12
                             5 3.12  14 3.12  25 3.12  23 3.12
   8  0.750  0.000  0.750-  12 3.11   4 3.12  11 3.12   2 3.12  31 3.12  27 3.12   6 3.12  26 3.12
                            19 3.12  21 3.12   9 3.12   1 3.12
   9  0.750  0.250  0.000-  12 3.11   3 3.12  20 3.12  32 3.12  28 3.12  21 3.12  27 3.12  13 3.12
                            31 3.12  22 3.12  10 3.12   8 3.12
  10  0.750  0.500  0.250-   2 3.12   4 3.12  13 3.12  18 3.12  22 3.12  29 3.12  14 3.12  28 3.12
                             5 3.12  32 3.12   9 3.12   1 3.12
  11  0.000  0.750  0.750-   6 3.12   8 3.12  22 3.12  30 3.12   7 3.12   2 3.12  20 3.12   1 3.12
                            23 3.12  15 3.12  14 3.12  12 3.12
  12  0.998  0.000  0.000-   9 3.11   3 3.11   2 3.11   8 3.11   5 3.12  21 3.12  11 3.12  13 3.12
                            15 3.14  23 3.14  24 3.14  16 3.14
  13  0.000  0.250  0.250-   6 3.12  10 3.12  16 3.12  22 3.12   4 3.12  24 3.12  17 3.12   3 3.12
                             9 3.12  25 3.12  14 3.12  12 3.12
  14  0.000  0.500  0.500-   1 3.12   5 3.12  17 3.12  21 3.12  20 3.12  25 3.12   7 3.12  10 3.12
                             4 3.12  30 3.12  13 3.12  11 3.12
  15  0.250  0.750  0.000-  23 3.12  25 3.12  32 3.12  26 3.12   5 3.12  18 3.12  22 3.12  27 3.12
                            11 3.12  30 3.12  16 3.12  12 3.14
  16  0.250  0.000  0.250-   7 3.12  13 3.12  18 3.12  24 3.12   6 3.12  27 3.12   5 3.12  19 3.12
                            28 3.12  17 3.12  15 3.12  12 3.14
  17  0.250  0.250  0.500-  14 3.12  19 3.12  23 3.12  25 3.12  21 3.12  28 3.12   6 3.12  13 3.12
                            29 3.12  31 3.12  30 3.12  16 3.12
  18  0.500  0.750  0.250-  10 3.12  16 3.12  27 3.12  29 3.12   2 3.12   7 3.12   1 3.12  25 3.12
                             3 3.12  15 3.12  19 3.12  32 3.12
  19  0.500  0.000  0.500-   1 3.12  17 3.12  26 3.12  28 3.12   3 3.12  23 3.12   4 3.12   7 3.12
                             8 3.12  16 3.12  18 3.12  31 3.12
  20  0.750  0.500  0.750-   1 3.12   9 3.12  21 3.12  26 3.12  14 3.12  32 3.12  11 3.12  29 3.12
                            31 3.12  22 3.12   4 3.12   2 3.12
  21  0.000  0.250  0.750-  14 3.12  20 3.12  23 3.12   9 3.12  17 3.12   8 3.12   4 3.12  24 3.12
                            30 3.12  22 3.12   6 3.12  12 3.12
  22  0.000  0.500  0.000-   2 3.12  11 3.12  13 3.12  24 3.12  10 3.12  30 3.12  20 3.12   9 3.12
                            25 3.12  15 3.12  21 3.12   5 3.12
  23  0.250  0.000  0.750-  15 3.12  17 3.12  21 3.12  26 3.12  19 3.12  11 3.12   6 3.12  27 3.12
                            31 3.12  24 3.12   7 3.12  12 3.14
  24  0.250  0.250  0.000-  16 3.12  22 3.12  27 3.12  30 3.12  13 3.12  31 3.12  21 3.12  28 3.12
                            32 3.12  25 3.12  23 3.12  12 3.14
  25  0.250  0.500  0.250-   5 3.12  15 3.12  17 3.12  28 3.12  14 3.12  32 3.12  22 3.12  13 3.12
                            29 3.12  18 3.12  24 3.12   7 3.12
  26  0.500  0.750  0.750-  19 3.12  20 3.12  23 3.12  32 3.12   1 3.12  15 3.12   8 3.12   2 3.12
                            30 3.12   7 3.12  27 3.12  29 3.12
  27  0.500  0.000  0.000-   2 3.12  18 3.12  24 3.12  31 3.12  16 3.12   8 3.12   9 3.12  23 3.12
                            15 3.12   3 3.12  28 3.12  26 3.12
  28  0.500  0.250  0.250-   3 3.12  19 3.12  25 3.12  32 3.12  17 3.12   9 3.12  10 3.12  24 3.12
                            16 3.12   4 3.12  29 3.12  27 3.12
  29  0.500  0.500  0.500-   4 3.12   7 3.12  18 3.12  31 3.12  30 3.12  10 3.12  20 3.12  25 3.12
                            17 3.12   1 3.12  26 3.12  28 3.12
  30  0.250  0.500  0.750-   7 3.12  11 3.12  24 3.12  31 3.12  29 3.12  22 3.12  26 3.12  14 3.12
                            21 3.12  32 3.12  17 3.12  15 3.12
  31  0.500  0.250  0.750-   8 3.12  27 3.12  29 3.12  30 3.12  24 3.12   4 3.12   9 3.12  17 3.12
                            20 3.12  23 3.12  19 3.12  32 3.12
  32  0.500  0.500  0.000-   9 3.12  15 3.12  26 3.12  28 3.12  20 3.12  25 3.12   2 3.12  10 3.12
                            24 3.12  30 3.12  18 3.12  31 3.12

  LATTYP: Found a simple cubic cell.
 ALAT       =     8.8330648300

  Lattice vectors:

 A1 = (   8.8330648300,   0.0000000000,   0.0000000000)
 A2 = (   0.0000001600,   8.8330648300,   0.0000000000)
 A3 = (   0.0000001600,   0.0000001600,   8.8330648300)
 Subroutine PRICEL returns:
 Original cell was already a primitive cell.

Analysis of symmetry for initial positions (statically):

 Routine SETGRP: Setting up the symmetry group for a
 simple cubic supercell.

 Subroutine GETGRP returns: Found  8 space group operations
 (whereof  8 operations were pure point group operations)
 out of a pool of 48 trial point group operations.

The static configuration has the point symmetry C_4v.

Analysis of symmetry for dynamics (positions and initial velocities):

 Subroutine DYNSYM returns: Found  8 space group operations
 (whereof  8 operations were pure point group operations)
 out of a pool of  8 trial space group operations
 (whereof  8 operations were pure point group operations)
 and found also     1 'primitive' translations

The dynamic configuration has the point symmetry C_4v.

 KPOINTS: Automatic mesh

Automatic generation of k-mesh.

 Subroutine IBZKPT returns following result:

 Found     40 irreducible k-points:

 Following reciprocal coordinates:
            Coordinates               Weight
  0.062500  0.062500  0.062500      8.000000
  0.187500  0.062500  0.062500      8.000000
  0.312500  0.062500  0.062500      8.000000
  0.437500  0.062500  0.062500      8.000000
  0.062500  0.187500  0.062500     16.000000
  0.187500  0.187500  0.062500     16.000000
  0.312500  0.187500  0.062500     16.000000
  0.437500  0.187500  0.062500     16.000000
  0.062500  0.312500  0.062500     16.000000
  0.187500  0.312500  0.062500     16.000000
  0.312500  0.312500  0.062500     16.000000
  0.437500  0.312500  0.062500     16.000000
  0.062500  0.437500  0.062500     16.000000
  0.187500  0.437500  0.062500     16.000000
  0.312500  0.437500  0.062500     16.000000
  0.437500  0.437500  0.062500     16.000000
  0.062500  0.187500  0.187500      8.000000
  0.187500  0.187500  0.187500      8.000000
  0.312500  0.187500  0.187500      8.000000
  0.437500  0.187500  0.187500      8.000000
  0.062500  0.312500  0.187500     16.000000
  0.187500  0.312500  0.187500     16.000000
  0.312500  0.312500  0.187500     16.000000
  0.437500  0.312500  0.187500     16.000000
  0.062500  0.437500  0.187500     16.000000
  0.187500  0.437500  0.187500     16.000000
  0.312500  0.437500  0.187500     16.000000
  0.437500  0.437500  0.187500     16.000000
  0.062500  0.312500  0.312500      8.000000
  0.187500  0.312500  0.312500      8.000000
  0.312500  0.312500  0.312500      8.000000
  0.437500  0.312500  0.312500      8.000000
  0.062500  0.437500  0.312500     16.000000
  0.187500  0.437500  0.312500     16.000000
  0.312500  0.437500  0.312500     16.000000
  0.437500  0.437500  0.312500     16.000000
  0.062500  0.437500  0.437500      8.000000
  0.187500  0.437500  0.437500      8.000000
  0.312500  0.437500  0.437500      8.000000
  0.437500  0.437500  0.437500      8.000000

 Following cartesian coordinates:
            Coordinates               Weight
  0.007076  0.007076  0.007076      8.000000
  0.021227  0.007076  0.007076      8.000000
  0.035378  0.007076  0.007076      8.000000
  0.049530  0.007076  0.007076      8.000000
  0.007076  0.021227  0.007076     16.000000
  0.021227  0.021227  0.007076     16.000000
  0.035378  0.021227  0.007076     16.000000
  0.049530  0.021227  0.007076     16.000000
  0.007076  0.035378  0.007076     16.000000
  0.021227  0.035378  0.007076     16.000000
  0.035378  0.035378  0.007076     16.000000
  0.049530  0.035378  0.007076     16.000000
  0.007076  0.049530  0.007076     16.000000
  0.021227  0.049530  0.007076     16.000000
  0.035378  0.049530  0.007076     16.000000
  0.049530  0.049530  0.007076     16.000000
  0.007076  0.021227  0.021227      8.000000
  0.021227  0.021227  0.021227      8.000000
  0.035378  0.021227  0.021227      8.000000
  0.049530  0.021227  0.021227      8.000000
  0.007076  0.035378  0.021227     16.000000
  0.021227  0.035378  0.021227     16.000000
  0.035378  0.035378  0.021227     16.000000
  0.049530  0.035378  0.021227     16.000000
  0.007076  0.049530  0.021227     16.000000
  0.021227  0.049530  0.021227     16.000000
  0.035378  0.049530  0.021227     16.000000
  0.049530  0.049530  0.021227     16.000000
  0.007076  0.035378  0.035378      8.000000
  0.021227  0.035378  0.035378      8.000000
  0.035378  0.035378  0.035378      8.000000
  0.049530  0.035378  0.035378      8.000000
  0.007076  0.049530  0.035378     16.000000
  0.021227  0.049530  0.035378     16.000000
  0.035378  0.049530  0.035378     16.000000
  0.049530  0.049530  0.035378     16.000000
  0.007076  0.049530  0.049530      8.000000
  0.021227  0.049530  0.049530      8.000000
  0.035378  0.049530  0.049530      8.000000
  0.049530  0.049530  0.049530      8.000000

 I would recommend the setting:
   dimension x,y,z NGX =    71 NGY =   71 NGZ =   71
 SYSTEM =  No title
 POSCAR =  No title

 Startparameter for this run:
   NWRITE =      2    write-flag & timer
[...]

[...]

 eigenvalues of (default mixing * dielectric matrix)
  average eigenvalue GAMMA=   1.0800
  1.0800

[...]

 eigenvalue-minimisations  : 18864
 total energy-change (2. order) :-0.4039996E-03  (-0.2264476E-03)
 number of electron  352.0000007 magnetization
 augmentation part   130.5258573 magnetization

[...]

 Broyden mixing:
  rms(total) = 0.47921E-03    rms(broyden)= 0.47921E-03
  rms(prec ) = 0.66943E-03
  weight for this iteration     100.00

 eigenvalues of (default mixing * dielectric matrix)
  average eigenvalue GAMMA=   1.5344
  2.5662  1.8005  1.8005  1.1005  1.1005  0.8381

[...]

----------------------------------------- Iteration    1(   8)  ---------------------------------------

 eigenvalue-minimisations  : 10394
 total energy-change (2. order) : 0.1495635E-05  (-0.9079240E-06)
 number of electron  352.0000007 magnetization
 augmentation part   130.5005005 magnetization

 Free energy of the ion-electron system (eV)
  alpha Z        PSCENC =      2782.67082173
  Ewald energy   TEWEN  =    -28940.45437369
  -1/2 Hartree   DENC   =     -4642.40307820
  -V(xc)+E(xc)   XCENC  =       453.55164070
  PAW double counting   =     23473.41032897   -22777.53757568
  entropy T*S    EENTRO =        -0.00681179
  eigenvalues    EBANDS =       -82.01834362
  atomic energy  EATOM  =     29633.77399530
  free energy    TOTEN  =       -99.01339627 eV

  energy without entropy =      -99.00658448  energy(sigma->0) =      -99.01112568

 average (electrostatic) potential at core
  the test charge radii are     1.2098
  (the norm of the test charge is              1.0000)
       1 -47.4729       2 -47.4752       3 -47.4752       4 -47.4729       5 -47.4727
       6 -47.4727       7 -47.4725       8 -47.4752       9 -47.4752      10 -47.4729
      11 -47.4727      12 -47.4727      13 -47.4727      14 -47.4727      15 -47.4702
      16 -47.4702      17 -47.4725      18 -47.4727      19 -47.4727      20 -47.4729
      21 -47.4727      22 -47.4727      23 -47.4702      24 -47.4702      25 -47.4725
      26 -47.4727      27 -47.4727      28 -47.4727      29 -47.4727      30 -47.4725
      31 -47.4727      32 -47.4727

 E-fermi :   3.1045     XC(G=0): -11.3566     alpha+bet : -8.0579
   add alpha+bet to get absolut eigen values

 k-point   1 :       0.0625    0.0625    0.0625
  band No.  band energies     occupation
      1      -4.5048      2.00000
      2      -2.6895      2.00000
      3      -2.6867      2.00000
      4      -2.6840      2.00000
      5      -2.3918      2.00000
      6      -2.3721      2.00000
      7      -2.3720      2.00000
      8      -2.3720      2.00000
      9      -2.3477      2.00000
     10      -2.3453      2.00000
     11      -2.3428      2.00000
     12      -2.1296      2.00000
     13      -2.1295      2.00000
     14      -2.1295      2.00000
     15      -1.9342      2.00000
     16      -1.9342      2.00000
     17      -1.9341      2.00000
     18      -1.6470      2.00000
     19      -1.6452      2.00000
     20      -1.6433      2.00000
     21      -1.4950      2.00000
     22      -1.4946      2.00000
     23      -1.4923      2.00000
     24      -1.4923      2.00000
     25      -1.4901      2.00000
     26      -1.4896      2.00000
     27      -1.4283      2.00000
     28      -1.4263      2.00000
     29      -1.4243      2.00000
     30      -1.3638      2.00000
     31      -1.3625      2.00000
     32      -1.3613      2.00000
     33      -1.3551      2.00000
     34      -1.3521      2.00000
     35      -1.3519      2.00000
     36      -1.3519      2.00000
     37      -1.3517      2.00000
     38      -1.3488      2.00000
     39      -1.2305      2.00000
     40      -1.2292      2.00000
     41      -1.2279      2.00000
     42      -0.9579      2.00000
     43      -0.9578      2.00000
     44      -0.9566      2.00000
     45      -0.9564      2.00000
     46      -0.9551      2.00000
     47      -0.9551      2.00000
     48      -0.8927      2.00000
     49      -0.8910      2.00000
     50      -0.8896      2.00000
     51      -0.8733      2.00000
     52      -0.8724      2.00000
     53      -0.8712      2.00000
     54      -0.8711      2.00000
     55      -0.8700      2.00000
     56      -0.8689      2.00000
     57      -0.8170      2.00000
     58      -0.8156      2.00000
     59      -0.8141      2.00000
     60      -0.6874      2.00000
[...]
    198       7.3843     -0.00000
    199       7.3849     -0.00000
    200       8.4153     -0.00000
    201       8.4156     -0.00000
    202       8.4179     -0.00000
    203       8.4179     -0.00000
    204       8.4201     -0.00000
    205       8.4205     -0.00000
    206       9.1014      0.00000
    207       9.1028      0.00000
    208       9.1042      0.00000
    209       9.1054      0.00000
    210       9.1071      0.00000
    211       9.1111      0.00000
    212       9.8450      0.00000

[...]

 k-point  40 :       0.4375    0.4375    0.4375
  band No.  band energies     occupation
      1      -3.3212      2.00000
      2      -3.1127      2.00000
      3      -3.1100      2.00000
      4      -3.1074      2.00000
      5      -2.9356      2.00000
      6      -2.9332      2.00000
      7      -2.9308      2.00000
      8      -2.7999      2.00000
      9      -1.7695      2.00000
     10      -1.7688      2.00000
     11      -1.7688      2.00000
     12      -1.7666      2.00000
     13      -1.7650      2.00000
     14      -1.7634      2.00000
     15      -1.7586      2.00000
     16      -1.7585      2.00000
     17      -1.7582      2.00000
     18      -1.7436      2.00000
     19      -1.7433      2.00000
     20      -1.7416      2.00000
     21      -1.7415      2.00000
     22      -1.7401      2.00000
     23      -1.7394      2.00000
     24      -1.7111      2.00000
     25      -1.7105      2.00000
     26      -1.7093      2.00000
     27      -1.7091      2.00000
     28      -1.7078      2.00000
     29      -1.7074      2.00000
     30      -1.7053      2.00000
     31      -1.7038      2.00000
     32      -1.7019      2.00000
     33      -1.2550      2.00000
     34      -1.2545      2.00000
     35      -1.2540      2.00000
     36      -1.1514      2.00000
     37      -1.1506      2.00000
     38      -1.1498      2.00000
     39      -1.1154      2.00000
     40      -1.1141      2.00000
     41      -1.1130      2.00000
     42      -1.1130      2.00000
     43      -1.1119      2.00000
     44      -1.1107      2.00000
     45      -1.0131      2.00000
     46      -1.0116      2.00000
     47      -1.0106      2.00000
     48      -1.0106      2.00000
     49      -1.0095      2.00000
     50      -1.0086      2.00000
     51      -1.0012      2.00000
     52      -1.0004      2.00000
     53      -0.9991      2.00000
     54      -0.9150      2.00000
     55      -0.9150      2.00000
     56      -0.9148      2.00000
     57      -0.6678      2.00000
     58      -0.6494      2.00000
     59      -0.6478      2.00000
     60      -0.6463      2.00000
[...]
    198       7.3216     -0.00000
    199       7.6584     -0.00000
    200       7.6592     -0.00000
    201       7.6606     -0.00000
    202       7.6608     -0.00000
    203       7.6622     -0.00000
    204       7.6632     -0.00000
    205       8.0629     -0.00000
    206       8.0642     -0.00000
    207       8.0651     -0.00000
    208       8.0678     -0.00000
    209       8.0787     -0.00000
    210       8.1494     -0.00000
    211       8.3077     -0.00000
    212       8.7190      0.00000

 soft charge-density along one line, spin component           1
         0         1         2         3         4         5         6         7         8         9
 total charge-density along one line

------------------------ aborting loop because EDIFF is reached ----------------------------------------

  FREE ENERGIE OF THE ION-ELECTRON SYSTEM (eV)
  free  energy   TOTEN  =       -99.013396 eV

  energy  without entropy=      -99.006584  energy(sigma->0) =      -99.011126

  FORCE on cell =-STRESS in cart. coord.  units (eV/reduce length):
  Direction    X        Y        Z        XY       YZ       ZX
  Alpha Z   2782.67   2782.67   2782.67
  Ewald    -9646.94  -9646.82  -9646.82     -0.00     -0.00     -0.00
  Hartree   1547.47   1547.56   1547.56     -0.00     -0.00     -0.00
  E(xc)    -1572.82  -1572.82  -1572.82     -0.00     -0.00     -0.00
  Local     2273.13   2272.91   2272.91      0.00      0.00      0.00
  n-local  -1699.59  -1705.42  -1693.75      4.06      2.66      1.26
  augment   1377.27   1377.26   1377.26     -0.00     -0.00     -0.00
  Kinetic   4879.58   4873.96   4885.20      1.13     -0.25     -1.63
  Total      -59.24    -59.24    -59.24     -0.00     -0.00     -0.00
  in kB     -137.71   -137.72   -137.72     -0.00     -0.00     -0.00

 VOLUME and BASIS-vectors are now :
  energy-cutoff  :      600.00
  volume of cell :      689.18
      direct lattice vectors                 reciprocal lattice vectors
     8.833064830  0.000000000  0.000000000     0.113210988 -0.000000002 -0.000000002
     0.000000160  8.833064830  0.000000000     0.000000000  0.113210988 -0.000000002
     0.000000160  0.000000160  8.833064830     0.000000000  0.000000000  0.113210988

  length of vectors
     8.833064830  8.833064830  8.833064830     0.113210988  0.113210988  0.113210988

 FORCES acting on ions
    electron-ion (+dipol)            ewald-force                    non-local-force                 convergence-correction
   0.231E-01 0.132E+00 -.123E-07   -.243E-01 -.132E+00 0.132E-07   0.722E-03 -.424E-03 -.206E-20   -.127E-03 -.359E-03 0.178E-09
   0.835E+00 0.161E+01 -.798E-08   -.830E+00 -.161E+01 0.252E-09   -.776E-02 -.497E-02 -.304E-20   -.142E-03 -.525E-03 -.194E-09
   0.835E+00 -.270E-07 -.161E+01   -.830E+00 0.288E-07 0.161E+01   -.776E-02 0.900E-10 0.497E-02   -.142E-03 0.115E-09 0.525E-03
   0.231E-01 -.132E+00 0.708E-08   -.243E-01 0.132E+00 -.771E-08   0.722E-03 0.424E-03 -.321E-20   -.127E-03 0.359E-03 -.108E-09
   -.103E+01 -.776E-02 0.776E-02   0.103E+01 0.737E-02 -.737E-02   -.433E-02 -.540E-05 0.540E-05   0.128E-02 0.401E-03 -.401E-03
   -.548E+00 0.211E-08 0.361E-07   0.549E+00 -.146E-08 -.394E-07   -.804E-03 -.229E-19 0.413E-20   0.128E-02 0.310E-09 -.633E-09
   0.275E-01 -.132E+00 0.681E-08   -.290E-01 0.131E+00 -.741E-08   0.679E-03 0.434E-03 -.137E-20   0.282E-03 0.160E-03 -.114E-09
   0.835E+00 0.211E-07 0.161E+01   -.830E+00 -.288E-07 -.161E+01   -.776E-02 -.900E-10 -.497E-02   -.142E-03 -.203E-09 -.525E-03
   0.835E+00 -.161E+01 0.215E-08   -.830E+00 0.161E+01 -.251E-09   -.776E-02 0.497E-02 -.196E-20   -.142E-03 0.525E-03 0.105E-09
   0.231E-01 0.469E-08 -.132E+00   -.243E-01 -.533E-08 0.132E+00   0.722E-03 0.768E-11 0.424E-03   -.127E-03 -.102E-09 0.360E-03
   -.103E+01 -.776E-02 -.776E-02   0.103E+01 0.737E-02 0.737E-02   -.433E-02 -.540E-05 -.540E-05   0.128E-02 0.401E-03 0.401E-03
   -.663E+01 0.103E-06 0.304E-07   0.656E+01 -.113E-06 -.113E-06   0.692E-01 -.693E-20 -.172E-19   0.907E-02 0.620E-09 0.620E-09
   -.103E+01 0.776E-02 0.776E-02   0.103E+01 -.737E-02 -.737E-02   -.433E-02 0.540E-05 0.540E-05   0.128E-02 -.401E-03 -.401E-03
   -.229E+00 0.101E-07 0.101E-07   0.226E+00 -.105E-07 -.105E-07   0.154E-02 0.205E-19 -.117E-19   0.115E-02 -.323E-09 -.323E-09
   0.845E+00 -.158E+01 0.204E-08   -.840E+00 0.158E+01 -.227E-09   -.739E-02 0.456E-02 -.652E-20   -.754E-03 0.142E-02 0.105E-09
   0.845E+00 0.208E-07 0.158E+01   -.840E+00 -.284E-07 -.158E+01   -.739E-02 -.825E-10 -.456E-02   -.754E-03 -.186E-09 -.142E-02
   0.275E-01 0.132E+00 -.125E-07   -.290E-01 -.131E+00 0.134E-07   0.679E-03 -.434E-03 -.241E-20   0.282E-03 -.160E-03 0.151E-09
   0.582E+00 0.225E-02 -.225E-02   -.582E+00 -.221E-02 0.221E-02   0.259E-03 0.414E-04 -.414E-04   -.146E-02 -.941E-04 0.941E-04
   0.443E+00 -.201E-08 -.240E-07   -.431E+00 0.145E-08 0.249E-07   -.621E-02 0.681E-20 -.424E-20   -.190E-02 -.313E-09 0.588E-09
   0.231E-01 -.987E-08 0.132E+00   -.243E-01 0.108E-07 -.132E+00   0.722E-03 -.768E-11 -.424E-03   -.127E-03 0.171E-09 -.360E-03
   -.103E+01 0.776E-02 -.776E-02   0.103E+01 -.737E-02 0.737E-02   -.433E-02 0.540E-05 -.540E-05   0.128E-02 -.401E-03 0.401E-03
   -.548E+00 0.362E-07 0.212E-08   0.549E+00 -.394E-07 -.146E-08   -.804E-03 -.211E-19 0.971E-20   0.128E-02 -.633E-09 0.310E-09
   0.845E+00 -.266E-07 -.158E+01   -.840E+00 0.284E-07 0.158E+01   -.739E-02 0.825E-10 0.456E-02   -.754E-03 0.130E-09 0.142E-02
   0.845E+00 0.158E+01 -.787E-08   -.840E+00 -.158E+01 0.276E-09   -.739E-02 -.456E-02 -.493E-20   -.754E-03 -.142E-02 -.160E-09
   0.275E-01 -.101E-07 0.132E+00   -.290E-01 0.111E-07 -.131E+00   0.679E-03 -.787E-11 -.434E-03   0.282E-03 0.148E-09 -.160E-03
   0.582E+00 0.225E-02 0.225E-02   -.582E+00 -.221E-02 -.221E-02   0.259E-03 0.414E-04 0.414E-04   -.146E-02 -.941E-04 -.941E-04
   0.172E+01 -.435E-08 0.691E-07   -.173E+01 0.194E-08 0.194E-08   0.105E-01 0.365E-20 -.148E-19   -.183E-02 -.565E-09 -.565E-09
   0.582E+00 -.225E-02 -.225E-02   -.582E+00 0.221E-02 0.221E-02   0.259E-03 -.414E-04 -.414E-04   -.146E-02 0.941E-04 0.941E-04
   0.212E+00 -.894E-08 -.892E-08   -.212E+00 0.921E-08 0.921E-08   0.619E-03 0.387E-20 -.467E-20   -.944E-03 0.335E-09 0.335E-09
   0.275E-01 0.442E-08 -.132E+00   -.290E-01 -.503E-08 0.131E+00   0.679E-03 0.787E-11 0.434E-03   0.282E-03 -.111E-09 0.160E-03
   0.582E+00 -.225E-02 0.225E-02   -.582E+00 0.221E-02 -.221E-02   0.259E-03 -.414E-04 0.414E-04   -.146E-02 0.941E-04 -.941E-04
   0.443E+00 -.239E-07 -.201E-08   -.431E+00 0.249E-07 0.145E-08   -.621E-02 -.210E-19 -.549E-20   -.190E-02 0.588E-09 -.313E-09
   -.171E-03 -.125E-10 -.122E-09   -.231E-12 -.568E-13 0.261E-12   -.345E-02 0.295E-17 0.161E-17   0.250E-02 0.156E-10 0.147E-10

 POSITION                                       TOTAL-FORCE (eV/Angst)
      6.62480      6.62480      4.41653        -0.000573      0.000068      0.000000
      6.62480      6.62480      0.00000        -0.003267     -0.004997     -0.000000
      6.62480      0.00000      2.20827        -0.003267      0.000000      0.004997
      6.62480      2.20827      4.41653        -0.000573     -0.000068      0.000000
      0.00000      6.62480      2.20827         0.003613      0.000006     -0.000006
      0.00000      0.00000      4.41653         0.001238      0.000000      0.000000
      2.20827      6.62480      4.41653        -0.000545     -0.000076      0.000000
      6.62480      0.00000      6.62480        -0.003267     -0.000000     -0.004997
      6.62480      2.20827      0.00000        -0.003267      0.004997     -0.000000
      6.62480      4.41653      2.20827        -0.000573     -0.000000     -0.000068
      0.00000      6.62480      6.62480         0.003613      0.000006      0.000006
      8.81307      0.00000      0.00000         0.017133     -0.000000     -0.000000
      0.00000      2.20827      2.20827         0.003613     -0.000006     -0.000006
      0.00000      4.41653      4.41653        -0.000222      0.000000     -0.000000
      2.20827      6.62480      0.00000        -0.002815      0.004382      0.000000
      2.20827      0.00000      2.20827        -0.002815     -0.000000     -0.004382
      2.20827      2.20827      4.41653        -0.000545      0.000076      0.000000
      4.41653      6.62480      2.20827        -0.001331     -0.000013      0.000013
      4.41653      0.00000      4.41653         0.003677     -0.000000      0.000000
      6.62480      4.41653      6.62480        -0.000573      0.000000      0.000068
      0.00000      2.20827      6.62480         0.003613     -0.000006      0.000006
      0.00000      4.41653      0.00000         0.001238     -0.000000      0.000000
      2.20827      0.00000      6.62480        -0.002815      0.000000      0.004382
      2.20827      2.20827      0.00000        -0.002815     -0.004382     -0.000000
      2.20827      4.41653      2.20827        -0.000545      0.000000      0.000076
      4.41653      6.62480      6.62480        -0.001331     -0.000013     -0.000013
      4.41653      0.00000      0.00000        -0.007202     -0.000000      0.000000
      4.41653      2.20827      2.20827        -0.001331      0.000013      0.000013
      4.41653      4.41653      4.41653         0.000132      0.000000      0.000000
      2.20827      4.41653      6.62480        -0.000545     -0.000000     -0.000076
      4.41653      2.20827      6.62480        -0.001331      0.000013     -0.000013
      4.41653      4.41653      0.00000         0.003677     -0.000000     -0.000000
    total drift:                               -0.001115      0.000000     -0.000000

 mean value of Nose-termostat <S>:     1.000 mean value of <T> :     0.000
 mean temperature <T/S>/<1/S>  :     0.000