 vasp.4.6.28 25Jul05 complex
 executed on             LinuxIFC date 2016.12.21  13:20:58

 INCAR:
 POTCAR:   PAW_PBE Au 06Sep2000
 POTCAR:   PAW_PBE Au 06Sep2000
   VRHFIN =Au: s1d10

   TITEL  = PAW_PBE Au 06Sep2000
   POMASS =  196.966; ZVAL   =   11.000    mass and valenz
   ENMAX  =  229.948; ENMIN  =  172.461 eV
   QCUT   =   -4.111; QGAM   =    8.222    optimization parameters

   Description
     l     E      TYP  RCUT    TYP  RCUT
     2   .000     23  2.500
     2   .000     23  2.500
     0   .000     23  2.500
     0   .000     23  2.500
     1  -.200     23  2.500
     1   .000     23  2.500
     3   .000      7   .000

 PAW_PBE Au 06Sep2000                   :

 POSCAR: Au
  positions in direct lattice
  velocities in cartesian coordinates

 ion  position               nearest neighbor table
   1  0.000  0.000  0.000-   2 2.95   3 2.95   4 2.95   3 2.95   4 2.95   2 2.95   4 2.95   4 2.95
                             2 2.95   3 2.95   3 2.95   2 2.95
   2  0.500  0.500  0.000-   1 2.95   3 2.95   4 2.95   3 2.95   4 2.95   1 2.95   3 2.95   3 2.95
                             1 2.95   4 2.95   4 2.95   1 2.95
   3  0.500  0.000  0.500-   1 2.95   2 2.95   4 2.95   1 2.95   2 2.95   2 2.95   4 2.95   2 2.95
                             1 2.95   4 2.95   1 2.95   4 2.95
   4  0.000  0.500  0.500-   1 2.95   2 2.95   3 2.95   1 2.95   2 2.95   1 2.95   3 2.95   1 2.95
                             2 2.95   3 2.95   2 2.95   3 2.95

  LATTYP: Found a simple cubic cell.
 ALAT       =     4.1730411706

  Lattice vectors:

 A1 = (   4.1730411706,   0.0000000000,   0.0000000000)
 A2 = (   0.0000000000,   4.1730411706,   0.0000000000)
 A3 = (   0.0000000000,   0.0000000000,   4.1730411706)
 Subroutine PRICEL returns following result:

  LATTYP: Found a face centered cubic cell.
 ALAT       =     4.1730411706

  Lattice vectors:

 A1 = (   2.0865205853,   2.0865205853,   0.0000000000)
 A2 = (   2.0865205853,   0.0000000000,  -2.0865205853)
 A3 = (   0.0000000000,   2.0865205853,  -2.0865205853)

   4 primitive cells build up your supercell.

Analysis of symmetry for initial positions (statically):

 Routine SETGRP: Setting up the symmetry group for a
 simple cubic supercell.

 Subroutine GETGRP returns: Found 48 space group operations
 (whereof 48 operations were pure point group operations)
 out of a pool of 48 trial point group operations.

The static configuration has the point symmetry O_h .

Analysis of symmetry for dynamics (positions and initial velocities):

 Subroutine DYNSYM returns: Found 48 space group operations
 (whereof 48 operations were pure point group operations)
 out of a pool of 48 trial space group operations
 (whereof 48 operations were pure point group operations)
 and found also     4 'primitive' translations

The dynamic configuration has the point symmetry O_h .

 KPOINTS: Automatic mesh

Automatic generation of k-mesh.
 generate k-points for:  12  12  12

 Subroutine IBZKPT returns following result:

 Found     84 irreducible k-points:

 Following reciprocal coordinates:
            Coordinates               Weight
  0.000000  0.000000  0.000000      1.000000
  0.083333  0.000000  0.000000      6.000000
  0.166667  0.000000  0.000000      6.000000
  0.250000  0.000000  0.000000      6.000000
  0.333333  0.000000  0.000000      6.000000
  0.416667  0.000000  0.000000      6.000000
  0.500000  0.000000  0.000000      3.000000
  0.083333  0.083333  0.000000     12.000000
  0.166667  0.083333  0.000000     24.000000
  0.250000  0.083333  0.000000     24.000000
  0.333333  0.083333  0.000000     24.000000
  0.416667  0.083333  0.000000     24.000000
  0.500000  0.083333  0.000000     12.000000
  0.166667  0.166667  0.000000     12.000000
  0.250000  0.166667  0.000000     24.000000
  0.333333  0.166667  0.000000     24.000000
  0.416667  0.166667  0.000000     24.000000
  0.500000  0.166667  0.000000     12.000000
  0.250000  0.250000  0.000000     12.000000
  0.333333  0.250000  0.000000     24.000000
  0.416667  0.250000  0.000000     24.000000
  0.500000  0.250000  0.000000     12.000000
  0.333333  0.333333  0.000000     12.000000
  0.416667  0.333333  0.000000     24.000000
  0.500000  0.333333  0.000000     12.000000
  0.416667  0.416667  0.000000     12.000000
  0.500000  0.416667  0.000000     12.000000
  0.500000  0.500000  0.000000      3.000000
  0.083333  0.083333  0.083333      8.000000
  0.166667  0.083333  0.083333     24.000000
  0.250000  0.083333  0.083333     24.000000
  0.333333  0.083333  0.083333     24.000000
  0.416667  0.083333  0.083333     24.000000
  0.500000  0.083333  0.083333     12.000000
  0.166667  0.166667  0.083333     24.000000
  0.250000  0.166667  0.083333     48.000000
  0.333333  0.166667  0.083333     48.000000
  0.416667  0.166667  0.083333     48.000000
  0.500000  0.166667  0.083333     24.000000
  0.250000  0.250000  0.083333     24.000000
  0.333333  0.250000  0.083333     48.000000
  0.416667  0.250000  0.083333     48.000000
  0.500000  0.250000  0.083333     24.000000
  0.333333  0.333333  0.083333     24.000000
  0.416667  0.333333  0.083333     48.000000
  0.500000  0.333333  0.083333     24.000000
  0.416667  0.416667  0.083333     24.000000
  0.500000  0.416667  0.083333     24.000000
  0.500000  0.500000  0.083333      6.000000
  0.166667  0.166667  0.166667      8.000000
  0.250000  0.166667  0.166667     24.000000
  0.333333  0.166667  0.166667     24.000000
  0.416667  0.166667  0.166667     24.000000
  0.500000  0.166667  0.166667     12.000000
  0.250000  0.250000  0.166667     24.000000
  0.333333  0.250000  0.166667     48.000000
  0.416667  0.250000  0.166667     48.000000
  0.500000  0.250000  0.166667     24.000000
  0.333333  0.333333  0.166667     24.000000
  0.416667  0.333333  0.166667     48.000000
[...]
  0.416667  0.333333  0.250000     48.000000
  0.500000  0.333333  0.250000     24.000000
  0.416667  0.416667  0.250000     24.000000
  0.500000  0.416667  0.250000     24.000000
  0.500000  0.500000  0.250000      6.000000
  0.333333  0.333333  0.333333      8.000000
  0.416667  0.333333  0.333333     24.000000
  0.500000  0.333333  0.333333     12.000000
  0.416667  0.416667  0.333333     24.000000
  0.500000  0.416667  0.333333     24.000000
  0.500000  0.500000  0.333333      6.000000
  0.416667  0.416667  0.416667      8.000000
  0.500000  0.416667  0.416667     12.000000
  0.500000  0.500000  0.416667      6.000000
  0.500000  0.500000  0.500000      1.000000

 Following cartesian coordinates:
            Coordinates               Weight
  0.000000  0.000000  0.000000      1.000000
  0.019969  0.000000  0.000000      6.000000
  0.039939  0.000000  0.000000      6.000000
  0.059908  0.000000  0.000000      6.000000
  0.079878  0.000000  0.000000      6.000000
  0.099847  0.000000  0.000000      6.000000
  0.119817  0.000000  0.000000      3.000000
  0.019969  0.019969  0.000000     12.000000
  0.039939  0.019969  0.000000     24.000000
  0.059908  0.019969  0.000000     24.000000
  0.079878  0.019969  0.000000     24.000000
  0.099847  0.019969  0.000000     24.000000
  0.119817  0.019969  0.000000     12.000000
  0.039939  0.039939  0.000000     12.000000
  0.059908  0.039939  0.000000     24.000000
  0.079878  0.039939  0.000000     24.000000
  0.099847  0.039939  0.000000     24.000000
  0.119817  0.039939  0.000000     12.000000
  0.059908  0.059908  0.000000     12.000000
  0.079878  0.059908  0.000000     24.000000
  0.099847  0.059908  0.000000     24.000000
  0.119817  0.059908  0.000000     12.000000
  0.079878  0.079878  0.000000     12.000000
  0.099847  0.079878  0.000000     24.000000
  0.119817  0.079878  0.000000     12.000000
  0.099847  0.099847  0.000000     12.000000
  0.119817  0.099847  0.000000     12.000000
  0.119817  0.119817  0.000000      3.000000
  0.019969  0.019969  0.019969      8.000000
  0.039939  0.019969  0.019969     24.000000
  0.059908  0.019969  0.019969     24.000000
  0.079878  0.019969  0.019969     24.000000
  0.099847  0.019969  0.019969     24.000000
  0.119817  0.019969  0.019969     12.000000
  0.039939  0.039939  0.019969     24.000000
  0.059908  0.039939  0.019969     48.000000
  0.079878  0.039939  0.019969     48.000000
  0.099847  0.039939  0.019969     48.000000
  0.119817  0.039939  0.019969     24.000000
  0.059908  0.059908  0.019969     24.000000
  0.079878  0.059908  0.019969     48.000000
  0.099847  0.059908  0.019969     48.000000
  0.119817  0.059908  0.019969     24.000000
  0.079878  0.079878  0.019969     24.000000
  0.099847  0.079878  0.019969     48.000000
  0.119817  0.079878  0.019969     24.000000
  0.099847  0.099847  0.019969     24.000000
  0.119817  0.099847  0.019969     24.000000
  0.119817  0.119817  0.019969      6.000000
  0.039939  0.039939  0.039939      8.000000
  0.059908  0.039939  0.039939     24.000000
  0.079878  0.039939  0.039939     24.000000
  0.099847  0.039939  0.039939     24.000000
  0.119817  0.039939  0.039939     12.000000
  0.059908  0.059908  0.039939     24.000000
  0.079878  0.059908  0.039939     48.000000
  0.099847  0.059908  0.039939     48.000000
  0.119817  0.059908  0.039939     24.000000
  0.079878  0.079878  0.039939     24.000000
  0.099847  0.079878  0.039939     48.000000
[...]
  0.099847  0.079878  0.059908     48.000000
  0.119817  0.079878  0.059908     24.000000
  0.099847  0.099847  0.059908     24.000000
  0.119817  0.099847  0.059908     24.000000
  0.119817  0.119817  0.059908      6.000000
  0.079878  0.079878  0.079878      8.000000
  0.099847  0.079878  0.079878     24.000000
  0.119817  0.079878  0.079878     12.000000
  0.099847  0.099847  0.079878     24.000000
  0.119817  0.099847  0.079878     24.000000
  0.119817  0.119817  0.079878      6.000000
  0.099847  0.099847  0.099847      8.000000
  0.119817  0.099847  0.099847     12.000000
  0.119817  0.119817  0.099847      6.000000
  0.119817  0.119817  0.119817      1.000000

 I would recommend the setting:
   dimension x,y,z NGX =    30 NGY =   30 NGZ =   30
 SYSTEM =  unknown system
 POSCAR =  Au

 Startparameter for this run:
   NWRITE =      2    write-flag & timer
   PREC   = accura    medium, high low
   ISTART =      0    job   : 0-new  1-cont  2-samecut
   ICHARG =      2    charge: 1-file 2-atom 10-const
   ISPIN  =      1    spin polarized calculation?
   LNONCOLLINEAR =      F non collinear calculations
   LSORBIT =      F    spin-orbit coupling
   INIWAV =      1    electr: 0-lowe 1-rand  2-diag
   LASPH  =      F    aspherical Exc in radial PAW
   METAGGA=      F    non-selfconsistent MetaGGA calc.

 Electronic Relaxation 1
   ENCUT  =  500.0 eV  36.75 Ry    6.06 a.u.   7.61  7.61  7.61*2*pi/ulx,y,z
   ENINI  =  500.0     initial cutoff
   ENAUG  =  356.7 eV  augmentation charge cutoff
   NELM   =     60;   NELMIN=  2; NELMDL=  0     # of ELM steps
   EDIFF  = 0.1E-07   stopping-criterion for ELM
   LREAL  =      F    real-space projection
   LCOMPAT=      F    compatible to vasp.4.4
   LREAL_COMPAT= F    compatible to vasp.4.5.1-3
   GGA_COMPAT  = T    GGA compatible to vasp.4.4-vasp.4.6
   LMAXPAW     = -100 max onsite density
   LMAXMIX     =    2 max onsite mixed and CHGCAR
[...]
 k-point 30 :  0.16670.08330.0833  plane waves:   1849
 k-point 31 :  0.25000.08330.0833  plane waves:   1849
 k-point 32 :  0.33330.08330.0833  plane waves:   1849
 k-point 33 :  0.41670.08330.0833  plane waves:   1851
 k-point 34 :  0.50000.08330.0833  plane waves:   1846
 k-point 35 :  0.16670.16670.0833  plane waves:   1850
 k-point 36 :  0.25000.16670.0833  plane waves:   1854
 k-point 37 :  0.33330.16670.0833  plane waves:   1845
 k-point 38 :  0.41670.16670.0833  plane waves:   1849
 k-point 39 :  0.50000.16670.0833  plane waves:   1846
 k-point 40 :  0.25000.25000.0833  plane waves:   1850
 k-point 41 :  0.33330.25000.0833  plane waves:   1846
 k-point 42 :  0.41670.25000.0833  plane waves:   1844
 k-point 43 :  0.50000.25000.0833  plane waves:   1856
 k-point 44 :  0.33330.33330.0833  plane waves:   1841
 k-point 45 :  0.41670.33330.0833  plane waves:   1843
 k-point 46 :  0.50000.33330.0833  plane waves:   1854
 k-point 47 :  0.41670.41670.0833  plane waves:   1841
 k-point 48 :  0.50000.41670.0833  plane waves:   1842
 k-point 49 :  0.50000.50000.0833  plane waves:   1844
 k-point 50 :  0.16670.16670.1667  plane waves:   1845
 k-point 51 :  0.25000.16670.1667  plane waves:   1860
 k-point 52 :  0.33330.16670.1667  plane waves:   1854
 k-point 53 :  0.41670.16670.1667  plane waves:   1839
 k-point 54 :  0.50000.16670.1667  plane waves:   1852
 k-point 55 :  0.25000.25000.1667  plane waves:   1855
 k-point 56 :  0.33330.25000.1667  plane waves:   1847
 k-point 57 :  0.41670.25000.1667  plane waves:   1838
 k-point 58 :  0.50000.25000.1667  plane waves:   1850
 k-point 59 :  0.33330.33330.1667  plane waves:   1834
 k-point 60 :  0.41670.33330.1667  plane waves:   1839
[...]
 k-point 70 :  0.41670.33330.2500  plane waves:   1839
 k-point 71 :  0.50000.33330.2500  plane waves:   1828
 k-point 72 :  0.41670.41670.2500  plane waves:   1835
 k-point 73 :  0.50000.41670.2500  plane waves:   1828
 k-point 74 :  0.50000.50000.2500  plane waves:   1820
 k-point 75 :  0.33330.33330.3333  plane waves:   1830
 k-point 76 :  0.41670.33330.3333  plane waves:   1833
 k-point 77 :  0.50000.33330.3333  plane waves:   1848
 k-point 78 :  0.41670.41670.3333  plane waves:   1840
 k-point 79 :  0.50000.41670.3333  plane waves:   1836
 k-point 80 :  0.50000.50000.3333  plane waves:   1828
 k-point 81 :  0.41670.41670.4167  plane waves:   1847
 k-point 82 :  0.50000.41670.4167  plane waves:   1844
 k-point 83 :  0.50000.50000.4167  plane waves:   1860
 k-point 84 :  0.50000.50000.5000  plane waves:   1856

 maximum and minimum number of plane-waves per node :   1860  1820

 maximum number of plane-waves:   1860
 maximal index in each direction:
   IXMAX=  7   IYMAX=  7   IZMAX=  7
   IXMIN= -8   IYMIN= -8   IZMIN= -8

 WARNING: wrap around error must be expected set NGX to  32
 WARNING: wrap around error must be expected set NGY to  32
 WARNING: wrap around error must be expected set NGZ to  32

 parallel 3dFFT wavefunction:
    minimum data exchange during FFTs selected (reduces bandwidth)
 parallel 3dFFT charge:
    minimum data exchange during FFTs selected (reduces bandwidth)

Broyden mixing: mesh for mixing (old mesh)
   NGX = 15   NGY = 15   NGZ = 15
  (NGX  = 60   NGY  = 60   NGZ  = 60)
 gives a total of   3375 points
 initial charge density was supplied:
 charge density of overlapping atoms calculated
 number of electron   44.0000000 magnetization
 keeping initial charge density in first step

 Maximum index for augmentation-charges        44233 (set IRDMAX)

 First call to EWALD:  gamma=   0.425
 Maximum number of real-space cells 3x 3x 3
 Maximum number of reciprocal cells 3x 3x 3

----------------------------------------- Iteration    1(   1)  ---------------------------------------

 eigenvalue-minimisations  :  4712
 total energy-change (2. order) : 0.4358649E+03  (-0.2127649E+04)
 number of electron   44.0000000 magnetization
 augmentation part    44.0000000 magnetization

 Free energy of the ion-electron system (eV)
  alpha Z        PSCENC =       412.34250575
  Ewald energy   TEWEN  =     -3828.64456067
  -1/2 Hartree   DENC   =      -528.88611959
  -V(xc)+E(xc)   XCENC  =        60.58165862
  PAW double counting   =      2990.04966927    -2896.51663641
  entropy T*S    EENTRO =        -0.00017425
  eigenvalues    EBANDS =       522.72873625
  atomic energy  EATOM  =      3704.20985194
  free energy    TOTEN  =       435.86493092 eV

  energy without entropy =      435.86510518  energy(sigma->0) =      435.86501805

[...]

 eigenvalue-minimisations  :  4760
 total energy-change (2. order) :-0.4315611E+03  (-0.4106114E+03)
 number of electron   44.0000000 magnetization
 augmentation part    44.0000000 magnetization

[...]

 Broyden mixing:
  rms(total) = 0.57187E+00    rms(broyden)= 0.57187E+00
  rms(prec ) = 0.14454E+01
  weight for this iteration     100.00

[...]

 eigenvalues of (default mixing * dielectric matrix)
  average eigenvalue GAMMA=   1.2171
  1.2171

[...]

 average (electrostatic) potential at core
  the test charge radii are     1.2098
  (the norm of the test charge is              1.0000)
       1 -46.1407       2 -46.1407       3 -46.1407       4 -46.1407

 E-fermi :   4.9251     XC(G=0): -12.3388     alpha+bet : -9.5523
   add alpha+bet to get absolut eigen values

 k-point   1 :       0.0000    0.0000    0.0000
  band No.  band energies     occupation
      1      -4.2411      2.00000
      2      -1.5824      2.00000
      3      -1.5824      2.00000
      4      -1.5824      2.00000
      5      -1.3076      2.00000
      6      -1.3076      2.00000
      7      -1.3076      2.00000
      8       0.5437      2.00000
      9       0.5437      2.00000
     10       0.5437      2.00000
     11       1.9002      2.00000
     12       1.9002      2.00000
     13       2.9324      2.00000
     14       2.9324      2.00000
     15       2.9324      2.00000
     16       3.2593      2.00000
     17       3.2593      2.00000
     18       3.2593      2.00000
     19       3.2593      2.00000
     20       3.2593      2.00000
     21       3.2593      2.00000
     22       6.1584      0.00000
     23       6.1584      0.00000
     24       6.1584      0.00000
     25      10.2733      0.00000
     26      10.2733      0.00000
     27      10.2733      0.00000
     28      14.9545      0.00000

[...]

 soft charge-density along one line, spin component           1
         0         1         2         3         4         5         6         7         8         9
 total charge-density along one line

------------------------ aborting loop because EDIFF is reached ----------------------------------------

  FREE ENERGIE OF THE ION-ELECTRON SYSTEM (eV)
  free  energy   TOTEN  =       -13.088399 eV

  energy  without entropy=      -13.088321  energy(sigma->0) =      -13.088360

  FORCE on cell =-STRESS in cart. coord.  units (eV/reduce length):
  Direction    X        Y        Z        XY       YZ       ZX
  Alpha Z    412.34    412.34    412.34
  Ewald    -1276.22  -1276.22  -1276.22     -0.00      0.00     -0.00
  Hartree    161.97    161.97    161.97     -0.00     -0.00     -0.00
  E(xc)     -198.25   -198.25   -198.25     -0.00     -0.00     -0.00
  Local      317.40    317.40    317.40      0.00      0.00      0.00
  n-local   -188.04   -204.99   -209.27      1.43      5.32      2.06
  augment    171.92    171.92    171.92     -0.00     -0.00     -0.00
  Kinetic    615.72    611.83    607.21     -4.16     -2.03     -2.67
  Total       -0.01     -0.01     -0.01      0.00      0.00      0.00
  in kB       -0.18     -0.18     -0.18      0.00      0.00      0.00

 VOLUME and BASIS-vectors are now :
  energy-cutoff  :      500.00
  volume of cell :       72.67
      direct lattice vectors                 reciprocal lattice vectors
     4.173041171  0.000000000  0.000000000     0.239633389  0.000000000  0.000000000
     0.000000000  4.173041171  0.000000000     0.000000000  0.239633389  0.000000000
     0.000000000  0.000000000  4.173041171     0.000000000  0.000000000  0.239633389

[...]

 FORCES acting on ions
    electron-ion (+dipol)            ewald-force                    non-local-force                 convergence-correction
   -.661E-14 -.921E-14 -.129E-13   0.491E-14 -.130E-13 0.313E-14   0.517E-25 -.155E-24 -.155E-24   -.698E-14 0.288E-14 -.469E-13
   0.950E-13 0.161E-11 -.120E-11   -.925E-14 -.118E-13 0.311E-14   0.517E-25 -.155E-24 -.905E-25   -.286E-13 0.297E-14 -.520E-13
   0.946E-13 -.891E-14 -.297E-12   0.181E-13 0.965E-14 -.369E-14   -.103E-24 0.103E-24 0.168E-24   -.235E-13 -.433E-14 0.292E-13
   -.649E-14 0.924E-13 0.929E-13   -.130E-13 0.109E-13 -.371E-14   -.388E-25 -.103E-24 0.181E-24   0.177E-14 0.176E-14 0.312E-13
   0.177E-12 0.169E-11 -.141E-11   0.812E-15 -.433E-14 -.116E-14   -.388E-25 -.310E-24 0.103E-24   -.573E-13 0.329E-14 -.385E-13

 POSITION                                       TOTAL-FORCE (eV/Angst)
      0.00000      0.00000      0.00000        -0.000000      0.000000      0.000000
      2.08652      2.08652      0.00000        -0.000000     -0.000000      0.000000
      2.08652      0.00000      2.08652         0.000000      0.000000      0.000000
      0.00000      2.08652      2.08652        -0.000000      0.000000     -0.000000
    total drift:                                0.000000      0.000000     -0.000000

[...]

 d Force = 0.0000000E+00[ 0.000E+00, 0.000E+00]  d Energy = 0.3342975E-06-0.334E-06
 d Force = 0.0000000E+00[ 0.000E+00, 0.000E+00]  d Ewald  = 0.3832247E+00-0.383E+00

[...]

 Steepest descent step on ions:
 trial-energy change:   -0.000000  1 .order    0.000000   -0.000002    0.000003
  (g-gl).g = 0.249E-05      g.g   = 0.249E-05  gl.gl    = 0.000E+00
 g(Force)  = 0.336E-60   g(Stress)= 0.249E-05 ortho     = 0.000E+00
 gamma     =   0.00000
 trial     =   1.00000
 opt step  =   0.60931  (harmonic =   0.44300) maximal distance =0.00000000
 next E    =   -13.088400   (d E  =  -0.00000)

[...]

 d Force = 0.0000000E+00[ 0.000E+00, 0.000E+00]  d Energy = 0.5431125E-06-0.543E-06
 d Force = 0.0000000E+00[ 0.000E+00, 0.000E+00]  d Ewald  =-0.1497318E+00 0.150E+00

[...]

 d Force = 0.0000000E+00[ 0.000E+00, 0.000E+00]  d Energy =-0.2070888E-06 0.207E-06
 d Force = 0.0000000E+00[ 0.000E+00, 0.000E+00]  d Ewald  =-0.1240742E+00 0.124E+00

[...]

 Steepest descent step on ions:
 trial-energy change:    0.000000  1 .order    0.000000   -0.000000    0.000000
  (g-gl).g = 0.118E-05      g.g   = 0.307E-06  gl.gl    = 0.249E-05
 g(Force)  = 0.167E-60   g(Stress)= 0.307E-06 ortho     =-0.875E-06
 gamma     =   0.00000
 trial     =   0.92186
 opt step  =   0.44458  (harmonic =   0.44458) maximal distance =0.00000000
 next E    =   -13.088400   (d E  =  -0.00000)

[...]

 eigenvalue-minimisations  :  4776
 total energy-change (2. order) : 0.1429715E-05  (-0.3442991E-06)
 number of electron   44.0000000 magnetization
 augmentation part    16.1815539 magnetization

[...]

 Broyden mixing:
  rms(total) = 0.10392E-04    rms(broyden)= 0.10392E-04
  rms(prec ) = 0.21501E-04
  weight for this iteration     100.00

 eigenvalues of (default mixing * dielectric matrix)
  average eigenvalue GAMMA=   1.6480
  1.2513  1.2513  2.4415

[...]

----------------------------------------- Iteration    5(   5)  ---------------------------------------

 eigenvalue-minimisations  :  2412
 total energy-change (2. order) :-0.8118604E-08  (-0.2562670E-09)
 number of electron   44.0000000 magnetization
 augmentation part    16.1816902 magnetization

 Free energy of the ion-electron system (eV)
  alpha Z        PSCENC =       412.39861622
  Ewald energy   TEWEN  =     -3828.81821671
  -1/2 Hartree   DENC   =      -485.84383974
  -V(xc)+E(xc)   XCENC  =        58.65266535
  PAW double counting   =      2991.43723670    -2907.53140741
  entropy T*S    EENTRO =        -0.00007845
  eigenvalues    EBANDS =        42.40677196
  atomic energy  EATOM  =      3704.20985194
  free energy    TOTEN  =       -13.08840014 eV

  energy without entropy =      -13.08832168  energy(sigma->0) =      -13.08836091

 average (electrostatic) potential at core
  the test charge radii are     1.2098
  (the norm of the test charge is              1.0000)
       1 -46.1395       2 -46.1395       3 -46.1395       4 -46.1395

 E-fermi :   4.9264     XC(G=0): -12.3397     alpha+bet : -9.5536
   add alpha+bet to get absolut eigen values

[...]

 k-point  84 :       0.5000    0.5000    0.5000
  band No.  band energies     occupation
      1      -1.8285      2.00000
      2      -1.8285      2.00000
      3      -1.8285      2.00000
      4      -1.8285      2.00000
      5       0.5158      2.00000
      6       0.5158      2.00000
      7       0.5158      2.00000
      8       0.5158      2.00000
      9       0.5158      2.00000
     10       0.5158      2.00000
     11       0.5158      2.00000
     12       0.5158      2.00000
     13       2.9747      2.00000
     14       2.9747      2.00000
     15       2.9747      2.00000
     16       2.9747      2.00000
     17       2.9747      2.00000
     18       2.9747      2.00000
     19       2.9747      2.00000
     20       2.9747      2.00000
     21       4.2778      2.00000
     22       4.2778      2.00000
     23       4.2778      2.00000
     24       4.2778      2.00000
     25       7.7161      0.00000
     26       7.7161      0.00000
     27       7.7161      0.00000
     28       7.7161      0.00000

 soft charge-density along one line, spin component           1
         0         1         2         3         4         5         6         7         8         9
 total charge-density along one line

------------------------ aborting loop because EDIFF is reached ----------------------------------------

 d Force = 0.0000000E+00[ 0.000E+00, 0.000E+00]  d Energy = 0.1727813E-06-0.173E-06
 d Force = 0.0000000E+00[ 0.000E+00, 0.000E+00]  d Ewald  = 0.6423736E-01-0.642E-01

  FREE ENERGIE OF THE ION-ELECTRON SYSTEM (eV)
  free  energy   TOTEN  =       -13.088400 eV

  energy  without entropy=      -13.088322  energy(sigma->0) =      -13.088361

  FORCE on cell =-STRESS in cart. coord.  units (eV/reduce length):
  Direction    X        Y        Z        XY       YZ       ZX
  Alpha Z    412.40    412.40    412.40
  Ewald    -1276.27  -1276.27  -1276.27     -0.00      0.00      0.00
  Hartree    161.95    161.95    161.95     -0.00     -0.00     -0.00
  E(xc)     -198.25   -198.25   -198.25      0.00     -0.00      0.00
  Local      317.42    317.42    317.42     -0.00      0.00      0.00
  n-local   -188.03   -204.98   -209.26      1.43      5.32      2.06
  augment    171.92    171.92    171.92     -0.00     -0.00     -0.00
  Kinetic    615.72    611.83    607.22     -4.16     -2.04     -2.67
  Total        0.00      0.00      0.00      0.00      0.00     -0.00
  in kB        0.01      0.01      0.01      0.00      0.00     -0.00

 VOLUME and BASIS-vectors are now :
  energy-cutoff  :      500.00
  volume of cell :       72.66
      direct lattice vectors                 reciprocal lattice vectors
     4.172851902  0.000000000  0.000000000     0.239644259  0.000000000  0.000000000
    -0.000000000  4.172851902  0.000000000     0.000000000  0.239644259 -0.000000000
    -0.000000000  0.000000000  4.172851902    -0.000000000 -0.000000000  0.239644259

  length of vectors
     4.172851902  4.172851902  4.172851902     0.239644259  0.239644259  0.239644259

 FORCES acting on ions
    electron-ion (+dipol)            ewald-force                    non-local-force                 convergence-correction
   -.447E-14 -.130E-13 -.126E-13   -.444E-14 -.517E-14 0.480E-15   0.129E-25 -.162E-25 0.000E+00   -.701E-15 -.635E-15 -.464E-13
   0.937E-13 0.161E-11 -.120E-11   -.166E-13 0.576E-14 0.316E-15   0.259E-25 -.129E-25 0.226E-25   -.382E-14 0.284E-15 -.470E-13
   0.938E-13 -.126E-13 -.298E-12   0.248E-13 -.377E-14 -.420E-16   0.258E-25 -.517E-25 0.210E-25   0.178E-15 0.344E-14 0.247E-13
   -.431E-14 0.929E-13 0.893E-13   -.431E-14 0.716E-14 -.206E-15   0.840E-25 -.969E-25 0.452E-25   0.353E-14 -.292E-14 0.264E-13
   0.179E-12 0.168E-11 -.142E-11   -.593E-15 0.397E-14 0.549E-15   0.149E-24 -.178E-24 0.889E-25   -.806E-15 0.171E-15 -.423E-13

 POSITION                                       TOTAL-FORCE (eV/Angst)
     -0.00000      0.00000      0.00000        -0.000000      0.000000      0.000000
      2.08643      2.08643      0.00000        -0.000000     -0.000000      0.000000
      2.08643      0.00000      2.08643         0.000000      0.000000      0.000000
     -0.00000      2.08643      2.08643         0.000000      0.000000      0.000000
    total drift:                                0.000000      0.000000     -0.000000

 reached required accuracy - stopping structural energy minimisation