 vasp.4.6.28 25Jul05 complex
 executed on             LinuxIFC date 2017.01.14  03:53:58

 INCAR:
 POTCAR:   PAW_PBE Cu 05Jan2001
 POTCAR:   PAW_PBE Cu 05Jan2001
   VRHFIN =Cu: d10 p1

   TITEL  = PAW_PBE Cu 05Jan2001
   POMASS =   63.546; ZVAL   =   11.000    mass and valenz
   ENMAX  =  273.214; ENMIN  =  204.910 eV
   QCUT   =   -4.481; QGAM   =    8.962    optimization parameters

   Description
     l     E      TYP  RCUT    TYP  RCUT
     2   .000     23  2.300
     2   .000     23  2.300
     0   .000     23  2.300
     0   .000     23  2.300
     1  -.200     23  2.300
     1   .000     23  2.300
     3   .000      7   .000

 PAW_PBE Cu 05Jan2001                   :

 POSCAR: Cu
  positions in direct lattice
  velocities in cartesian coordinates

 ion  position               nearest neighbor table
   1  0.000  0.000  0.000-   2 2.57   3 2.57   4 2.57   3 2.57   4 2.57   2 2.57   4 2.57   4 2.57
                             2 2.57   3 2.57   3 2.57   2 2.57
   2  0.500  0.500  0.000-   1 2.57   3 2.57   4 2.57   3 2.57   4 2.57   1 2.57   3 2.57   3 2.57
                             1 2.57   4 2.57   4 2.57   1 2.57
   3  0.500  0.000  0.500-   1 2.57   2 2.57   4 2.57   1 2.57   2 2.57   2 2.57   4 2.57   2 2.57
                             1 2.57   4 2.57   1 2.57   4 2.57
   4  0.000  0.500  0.500-   1 2.57   2 2.57   3 2.57   1 2.57   2 2.57   1 2.57   3 2.57   1 2.57
                             2 2.57   3 2.57   2 2.57   3 2.57

  LATTYP: Found a simple cubic cell.
 ALAT       =     3.6368242252

  Lattice vectors:

 A1 = (   3.6368242252,   0.0000000000,   0.0000000000)
 A2 = (   0.0000000000,   3.6368242252,   0.0000000000)
 A3 = (   0.0000000000,   0.0000000000,   3.6368242252)
 Subroutine PRICEL returns following result:

  LATTYP: Found a face centered cubic cell.
 ALAT       =     3.6368242252

  Lattice vectors:

 A1 = (   1.8184121126,   1.8184121126,  -0.0000000000)
 A2 = (   1.8184121126,   0.0000000000,  -1.8184121126)
 A3 = (   0.0000000000,   1.8184121126,  -1.8184121126)

   4 primitive cells build up your supercell.

Analysis of symmetry for initial positions (statically):

 Routine SETGRP: Setting up the symmetry group for a
 simple cubic supercell.

 Subroutine GETGRP returns: Found 48 space group operations
 (whereof 48 operations were pure point group operations)
 out of a pool of 48 trial point group operations.

The static configuration has the point symmetry O_h .

Analysis of symmetry for dynamics (positions and initial velocities):

 Subroutine DYNSYM returns: Found 48 space group operations
 (whereof 48 operations were pure point group operations)
 out of a pool of 48 trial space group operations
 (whereof 48 operations were pure point group operations)
 and found also     4 'primitive' translations

The dynamic configuration has the point symmetry O_h .

 KPOINTS: Automatic mesh

Automatic generation of k-mesh.

 Subroutine IBZKPT returns following result:

 Found   1330 irreducible k-points:

 Following reciprocal coordinates:
            Coordinates               Weight
  0.000000  0.000000  0.000000      1.000000
  0.027778  0.000000  0.000000      6.000000
  0.055556  0.000000  0.000000      6.000000
  0.083333  0.000000  0.000000      6.000000
  0.111111  0.000000  0.000000      6.000000
  0.138889  0.000000  0.000000      6.000000
  0.166667  0.000000  0.000000      6.000000
  0.194444  0.000000  0.000000      6.000000
  0.222222  0.000000  0.000000      6.000000
  0.250000  0.000000  0.000000      6.000000
  0.277778  0.000000  0.000000      6.000000
  0.305556  0.000000  0.000000      6.000000
  0.333333  0.000000  0.000000      6.000000
  0.361111  0.000000  0.000000      6.000000
  0.388889  0.000000  0.000000      6.000000
  0.416667  0.000000  0.000000      6.000000
  0.444444  0.000000  0.000000      6.000000
  0.472222  0.000000  0.000000      6.000000
  0.500000  0.000000  0.000000      3.000000
  0.027778  0.027778  0.000000     12.000000
  0.055556  0.027778  0.000000     24.000000
  0.083333  0.027778  0.000000     24.000000
  0.111111  0.027778  0.000000     24.000000
  0.138889  0.027778  0.000000     24.000000
  0.166667  0.027778  0.000000     24.000000
  0.194444  0.027778  0.000000     24.000000
  0.222222  0.027778  0.000000     24.000000
  0.250000  0.027778  0.000000     24.000000
  0.277778  0.027778  0.000000     24.000000
  0.305556  0.027778  0.000000     24.000000
  0.333333  0.027778  0.000000     24.000000
  0.361111  0.027778  0.000000     24.000000
  0.388889  0.027778  0.000000     24.000000
  0.416667  0.027778  0.000000     24.000000
  0.444444  0.027778  0.000000     24.000000
  0.472222  0.027778  0.000000     24.000000
  0.500000  0.027778  0.000000     12.000000
  0.055556  0.055556  0.000000     12.000000
  0.083333  0.055556  0.000000     24.000000
  0.111111  0.055556  0.000000     24.000000
  0.138889  0.055556  0.000000     24.000000
  0.166667  0.055556  0.000000     24.000000
  0.194444  0.055556  0.000000     24.000000
  0.222222  0.055556  0.000000     24.000000
  0.250000  0.055556  0.000000     24.000000
  0.277778  0.055556  0.000000     24.000000
  0.305556  0.055556  0.000000     24.000000
  0.333333  0.055556  0.000000     24.000000
  0.361111  0.055556  0.000000     24.000000
  0.388889  0.055556  0.000000     24.000000
  0.416667  0.055556  0.000000     24.000000
  0.444444  0.055556  0.000000     24.000000
  0.472222  0.055556  0.000000     24.000000
  0.500000  0.055556  0.000000     12.000000
  0.083333  0.083333  0.000000     12.000000
  0.111111  0.083333  0.000000     24.000000
  0.138889  0.083333  0.000000     24.000000
  0.166667  0.083333  0.000000     24.000000
  0.194444  0.083333  0.000000     24.000000
  0.222222  0.083333  0.000000     24.000000
[...]
  0.472222  0.444444  0.416667     48.000000
  0.500000  0.444444  0.416667     24.000000
  0.472222  0.472222  0.416667     24.000000
  0.500000  0.472222  0.416667     24.000000
  0.500000  0.500000  0.416667      6.000000
  0.444444  0.444444  0.444444      8.000000
  0.472222  0.444444  0.444444     24.000000
  0.500000  0.444444  0.444444     12.000000
  0.472222  0.472222  0.444444     24.000000
  0.500000  0.472222  0.444444     24.000000
  0.500000  0.500000  0.444444      6.000000
  0.472222  0.472222  0.472222      8.000000
  0.500000  0.472222  0.472222     12.000000
  0.500000  0.500000  0.472222      6.000000
  0.500000  0.500000  0.500000      1.000000

 Following cartesian coordinates:
            Coordinates               Weight
  0.000000  0.000000  0.000000      1.000000
  0.007638  0.000000  0.000000      6.000000
  0.015276  0.000000  0.000000      6.000000
  0.022914  0.000000  0.000000      6.000000
  0.030552  0.000000  0.000000      6.000000
  0.038190  0.000000  0.000000      6.000000
  0.045828  0.000000  0.000000      6.000000
  0.053465  0.000000  0.000000      6.000000
  0.061103  0.000000  0.000000      6.000000
  0.068741  0.000000  0.000000      6.000000
  0.076379  0.000000  0.000000      6.000000
  0.084017  0.000000  0.000000      6.000000
  0.091655  0.000000  0.000000      6.000000
  0.099293  0.000000  0.000000      6.000000
  0.106931  0.000000  0.000000      6.000000
  0.114569  0.000000  0.000000      6.000000
  0.122207  0.000000  0.000000      6.000000
  0.129845  0.000000  0.000000      6.000000
  0.137483  0.000000  0.000000      3.000000
  0.007638  0.007638  0.000000     12.000000
  0.015276  0.007638  0.000000     24.000000
  0.022914  0.007638  0.000000     24.000000
  0.030552  0.007638  0.000000     24.000000
  0.038190  0.007638  0.000000     24.000000
  0.045828  0.007638  0.000000     24.000000
  0.053465  0.007638  0.000000     24.000000
  0.061103  0.007638  0.000000     24.000000
  0.068741  0.007638  0.000000     24.000000
  0.076379  0.007638  0.000000     24.000000
  0.084017  0.007638  0.000000     24.000000
  0.091655  0.007638  0.000000     24.000000
  0.099293  0.007638  0.000000     24.000000
  0.106931  0.007638  0.000000     24.000000
  0.114569  0.007638  0.000000     24.000000
  0.122207  0.007638  0.000000     24.000000
  0.129845  0.007638  0.000000     24.000000
  0.137483  0.007638  0.000000     12.000000
  0.015276  0.015276  0.000000     12.000000
  0.022914  0.015276  0.000000     24.000000
  0.030552  0.015276  0.000000     24.000000
  0.038190  0.015276  0.000000     24.000000
  0.045828  0.015276  0.000000     24.000000
  0.053465  0.015276  0.000000     24.000000
  0.061103  0.015276  0.000000     24.000000
  0.068741  0.015276  0.000000     24.000000
  0.076379  0.015276  0.000000     24.000000
  0.084017  0.015276  0.000000     24.000000
  0.091655  0.015276  0.000000     24.000000
  0.099293  0.015276  0.000000     24.000000
  0.106931  0.015276  0.000000     24.000000
  0.114569  0.015276  0.000000     24.000000
  0.122207  0.015276  0.000000     24.000000
  0.129845  0.015276  0.000000     24.000000
  0.137483  0.015276  0.000000     12.000000
  0.022914  0.022914  0.000000     12.000000
  0.030552  0.022914  0.000000     24.000000
  0.038190  0.022914  0.000000     24.000000
  0.045828  0.022914  0.000000     24.000000
  0.053465  0.022914  0.000000     24.000000
  0.061103  0.022914  0.000000     24.000000
[...]
  0.129845  0.122207  0.114569     48.000000
  0.137483  0.122207  0.114569     24.000000
  0.129845  0.129845  0.114569     24.000000
  0.137483  0.129845  0.114569     24.000000
  0.137483  0.137483  0.114569      6.000000
  0.122207  0.122207  0.122207      8.000000
  0.129845  0.122207  0.122207     24.000000
  0.137483  0.122207  0.122207     12.000000
  0.129845  0.129845  0.122207     24.000000
  0.137483  0.129845  0.122207     24.000000
  0.137483  0.137483  0.122207      6.000000
  0.129845  0.129845  0.129845      8.000000
  0.137483  0.129845  0.129845     12.000000
  0.137483  0.137483  0.129845      6.000000
  0.137483  0.137483  0.137483      1.000000

 I would recommend the setting:
   dimension x,y,z NGX =    38 NGY =   38 NGZ =   38
 SYSTEM =  unknown system
 POSCAR =  Cu

 Startparameter for this run:
   NWRITE =      2    write-flag & timer
   PREC   = accura    medium, high low
   ISTART =      0    job   : 0-new  1-cont  2-samecut
   ICHARG =      2    charge: 1-file 2-atom 10-const
   ISPIN  =      1    spin polarized calculation?
   LNONCOLLINEAR =      F non collinear calculations
   LSORBIT =      F    spin-orbit coupling
   INIWAV =      1    electr: 0-lowe 1-rand  2-diag
   LASPH  =      F    aspherical Exc in radial PAW
   METAGGA=      F    non-selfconsistent MetaGGA calc.

 Electronic Relaxation 1
   ENCUT  = 1000.0 eV  73.50 Ry    8.57 a.u.   9.38  9.38  9.38*2*pi/ulx,y,z
   ENINI  = 1000.0     initial cutoff
   ENAUG  =  516.5 eV  augmentation charge cutoff
   NELM   =     60;   NELMIN=  2; NELMDL=  0     # of ELM steps
   EDIFF  = 0.1E-07   stopping-criterion for ELM
   LREAL  =      F    real-space projection
   LCOMPAT=      F    compatible to vasp.4.4
   LREAL_COMPAT= F    compatible to vasp.4.5.1-3
   GGA_COMPAT  = T    GGA compatible to vasp.4.4-vasp.4.6
   LMAXPAW     = -100 max onsite density
   LMAXMIX     =    2 max onsite mixed and CHGCAR
[...]
 k-point 29 :  0.27780.02780.0000  plane waves:   3468
 k-point 30 :  0.30560.02780.0000  plane waves:   3472
 k-point 31 :  0.33330.02780.0000  plane waves:   3470
 k-point 32 :  0.36110.02780.0000  plane waves:   3476
 k-point 33 :  0.38890.02780.0000  plane waves:   3475
 k-point 34 :  0.41670.02780.0000  plane waves:   3473
 k-point 35 :  0.44440.02780.0000  plane waves:   3469
 k-point 36 :  0.47220.02780.0000  plane waves:   3465
 k-point 37 :  0.50000.02780.0000  plane waves:   3462
 k-point 38 :  0.05560.05560.0000  plane waves:   3435
 k-point 39 :  0.08330.05560.0000  plane waves:   3445
 k-point 40 :  0.11110.05560.0000  plane waves:   3461
 k-point 41 :  0.13890.05560.0000  plane waves:   3464
 k-point 42 :  0.16670.05560.0000  plane waves:   3468
 k-point 43 :  0.19440.05560.0000  plane waves:   3475
 k-point 44 :  0.22220.05560.0000  plane waves:   3468
 k-point 45 :  0.25000.05560.0000  plane waves:   3466
 k-point 46 :  0.27780.05560.0000  plane waves:   3461
 k-point 47 :  0.30560.05560.0000  plane waves:   3466
 k-point 48 :  0.33330.05560.0000  plane waves:   3464
 k-point 49 :  0.36110.05560.0000  plane waves:   3474
 k-point 50 :  0.38890.05560.0000  plane waves:   3473
 k-point 51 :  0.41670.05560.0000  plane waves:   3465
 k-point 52 :  0.44440.05560.0000  plane waves:   3462
 k-point 53 :  0.47220.05560.0000  plane waves:   3455
 k-point 54 :  0.50000.05560.0000  plane waves:   3462
 k-point 55 :  0.08330.08330.0000  plane waves:   3455
 k-point 56 :  0.11110.08330.0000  plane waves:   3459
 k-point 57 :  0.13890.08330.0000  plane waves:   3461
 k-point 58 :  0.16670.08330.0000  plane waves:   3466
 k-point 59 :  0.19440.08330.0000  plane waves:   3473
 k-point 60 :  0.22220.08330.0000  plane waves:   3471
[...]
 k-point 85 :  0.50000.11110.0000  plane waves:   3458
 k-point 86 :  0.13890.13890.0000  plane waves:   3469
 k-point 87 :  0.16670.13890.0000  plane waves:   3471
 k-point 88 :  0.19440.13890.0000  plane waves:   3466
 k-point 89 :  0.22220.13890.0000  plane waves:   3464
 k-point 90 :  0.25000.13890.0000  plane waves:   3470
 k-point 91 :  0.27780.13890.0000  plane waves:   3466
 k-point 92 :  0.30560.13890.0000  plane waves:   3466
 k-point 93 :  0.33330.13890.0000  plane waves:   3458
 k-point 94 :  0.36110.13890.0000  plane waves:   3462
 k-point 95 :  0.38890.13890.0000  plane waves:   3463
 k-point 96 :  0.41670.13890.0000  plane waves:   3455
 k-point 97 :  0.44440.13890.0000  plane waves:   3453
 k-point 98 :  0.47220.13890.0000  plane waves:   3464
 k-point 99 :  0.50000.13890.0000  plane waves:   3458
 k-point ** :  0.16670.16670.0000  plane waves:   3465
 k-point ** :  0.19440.16670.0000  plane waves:   3469
 k-point ** :  0.22220.16670.0000  plane waves:   3464
 k-point ** :  0.25000.16670.0000  plane waves:   3474
 k-point ** :  0.27780.16670.0000  plane waves:   3468
 k-point ** :  0.30560.16670.0000  plane waves:   3465
 k-point ** :  0.33330.16670.0000  plane waves:   3465
 k-point ** :  0.36110.16670.0000  plane waves:   3457
 k-point ** :  0.38890.16670.0000  plane waves:   3456
 k-point ** :  0.41670.16670.0000  plane waves:   3450
 k-point ** :  0.44440.16670.0000  plane waves:   3452
 k-point ** :  0.47220.16670.0000  plane waves:   3454
 k-point ** :  0.50000.16670.0000  plane waves:   3438
 k-point ** :  0.19440.19440.0000  plane waves:   3465
 k-point ** :  0.22220.19440.0000  plane waves:   3465
 k-point ** :  0.25000.19440.0000  plane waves:   3464
 k-point ** :  0.27780.19440.0000  plane waves:   3470
 k-point ** :  0.30560.19440.0000  plane waves:   3469
 k-point ** :  0.33330.19440.0000  plane waves:   3465
 k-point ** :  0.36110.19440.0000  plane waves:   3456
 k-point ** :  0.38890.19440.0000  plane waves:   3449
 k-point ** :  0.41670.19440.0000  plane waves:   3449
 k-point ** :  0.44440.19440.0000  plane waves:   3443
 k-point ** :  0.47220.19440.0000  plane waves:   3442
 k-point ** :  0.50000.19440.0000  plane waves:   3442
 k-point ** :  0.22220.22220.0000  plane waves:   3463
 k-point ** :  0.25000.22220.0000  plane waves:   3458
 k-point ** :  0.27780.22220.0000  plane waves:   3474
 k-point ** :  0.30560.22220.0000  plane waves:   3467
 k-point ** :  0.33330.22220.0000  plane waves:   3459
 k-point ** :  0.36110.22220.0000  plane waves:   3448
 k-point ** :  0.38890.22220.0000  plane waves:   3447
 k-point ** :  0.41670.22220.0000  plane waves:   3443
 k-point ** :  0.44440.22220.0000  plane waves:   3444
 k-point ** :  0.47220.22220.0000  plane waves:   3432
 k-point ** :  0.50000.22220.0000  plane waves:   3434
 k-point ** :  0.25000.25000.0000  plane waves:   3455
 k-point ** :  0.27780.25000.0000  plane waves:   3463
 k-point ** :  0.30560.25000.0000  plane waves:   3465
 k-point ** :  0.33330.25000.0000  plane waves:   3457
 k-point ** :  0.36110.25000.0000  plane waves:   3445
 k-point ** :  0.38890.25000.0000  plane waves:   3439
 k-point ** :  0.41670.25000.0000  plane waves:   3449
 k-point ** :  0.44440.25000.0000  plane waves:   3443
 k-point ** :  0.47220.25000.0000  plane waves:   3439
 k-point ** :  0.50000.25000.0000  plane waves:   3446
 k-point ** :  0.27780.27780.0000  plane waves:   3467
 k-point ** :  0.30560.27780.0000  plane waves:   3454
 k-point ** :  0.33330.27780.0000  plane waves:   3451
 k-point ** :  0.36110.27780.0000  plane waves:   3449
 k-point ** :  0.38890.27780.0000  plane waves:   3443
 k-point ** :  0.41670.27780.0000  plane waves:   3447
 k-point ** :  0.44440.27780.0000  plane waves:   3445
 k-point ** :  0.47220.27780.0000  plane waves:   3448
 k-point ** :  0.50000.27780.0000  plane waves:   3444
 k-point ** :  0.30560.30560.0000  plane waves:   3451
 k-point ** :  0.33330.30560.0000  plane waves:   3446
 k-point ** :  0.36110.30560.0000  plane waves:   3447
 k-point ** :  0.38890.30560.0000  plane waves:   3445
 k-point ** :  0.41670.30560.0000  plane waves:   3449
[...]
 k-point ** :  0.47220.44440.4167  plane waves:   3449
 k-point ** :  0.50000.44440.4167  plane waves:   3454
 k-point ** :  0.47220.47220.4167  plane waves:   3456
 k-point ** :  0.50000.47220.4167  plane waves:   3460
 k-point ** :  0.50000.50000.4167  plane waves:   3456
 k-point ** :  0.44440.44440.4444  plane waves:   3448
 k-point ** :  0.47220.44440.4444  plane waves:   3454
 k-point ** :  0.50000.44440.4444  plane waves:   3458
 k-point ** :  0.47220.47220.4444  plane waves:   3464
 k-point ** :  0.50000.47220.4444  plane waves:   3460
 k-point ** :  0.50000.50000.4444  plane waves:   3464
 k-point ** :  0.47220.47220.4722  plane waves:   3454
 k-point ** :  0.50000.47220.4722  plane waves:   3448
 k-point ** :  0.50000.50000.4722  plane waves:   3448
 k-point ** :  0.50000.50000.5000  plane waves:   3448

 maximum and minimum number of plane-waves per node :   3483  3407

 maximum number of plane-waves:   3483
 maximal index in each direction:
   IXMAX=  9   IYMAX=  9   IZMAX=  9
   IXMIN= -9   IYMIN= -9   IZMIN= -9

 NGX is ok and might be reduce to  38
 NGY is ok and might be reduce to  38
 NGZ is ok and might be reduce to  38

 parallel 3dFFT wavefunction:
    minimum data exchange during FFTs selected (reduces bandwidth)
 parallel 3dFFT charge:
    minimum data exchange during FFTs selected (reduces bandwidth)

Broyden mixing: mesh for mixing (old mesh)
   NGX = 19   NGY = 19   NGZ = 19
  (NGX  = 80   NGY  = 80   NGZ  = 80)
 gives a total of   6859 points
 initial charge density was supplied:
 charge density of overlapping atoms calculated
 number of electron   44.0000000 magnetization
 keeping initial charge density in first step

 Maximum index for augmentation-charges        45599 (set IRDMAX)

 First call to EWALD:  gamma=   0.487
 Maximum number of real-space cells 3x 3x 3
 Maximum number of reciprocal cells 3x 3x 3

----------------------------------------- Iteration    1(   1)  ---------------------------------------

 eigenvalue-minimisations  : 88016
 total energy-change (2. order) : 0.3606138E+03  (-0.3120779E+04)
 number of electron   44.0000000 magnetization
 augmentation part    44.0000000 magnetization

 Free energy of the ion-electron system (eV)
  alpha Z        PSCENC =       424.96822640
  Ewald energy   TEWEN  =     -4393.14368526
  -1/2 Hartree   DENC   =     -1318.74565501
  -V(xc)+E(xc)   XCENC  =       175.40826157
  PAW double counting   =      4328.20916945    -4904.30802700
  entropy T*S    EENTRO =        -0.00007088
  eigenvalues    EBANDS =       484.30633233
  atomic energy  EATOM  =      5563.91924406
  free energy    TOTEN  =       360.61379565 eV

  energy without entropy =      360.61386653  energy(sigma->0) =      360.61383109

[...]

 eigenvalue-minimisations  : 85224
 total energy-change (2. order) :-0.3500789E+03  (-0.3318942E+03)
 number of electron   44.0000000 magnetization
 augmentation part    44.0000000 magnetization

[...]

 Broyden mixing:
  rms(total) = 0.13925E+01    rms(broyden)= 0.13925E+01
  rms(prec ) = 0.33328E+01
  weight for this iteration     100.00

[...]

 eigenvalues of (default mixing * dielectric matrix)
  average eigenvalue GAMMA=   0.6875
  0.6875

[...]

 eigenvalue-minimisations  :100464
 total energy-change (2. order) : 0.8335047E-02  (-0.1243072E-02)
 number of electron   44.0000002 magnetization
 augmentation part    28.7700891 magnetization

[...]

 eigenvalue-minimisations  :101296
 total energy-change (2. order) : 0.1848024E-05  (-0.1586485E-05)
 number of electron   44.0000002 magnetization
 augmentation part    28.7699741 magnetization

[...]

 eigenvalue-minimisations  : 52464
 total energy-change (2. order) : 0.2812067E-07  (-0.1280386E-09)
 number of electron   44.0000002 magnetization
 augmentation part    28.7705277 magnetization

 Broyden mixing:
  rms(total) = 0.14789E-05    rms(broyden)= 0.14788E-05
  rms(prec ) = 0.25915E-05
  weight for this iteration     100.00

 eigenvalues of (default mixing * dielectric matrix)
  average eigenvalue GAMMA=   1.5393
  2.6087  2.6087  2.5049  2.5049  0.6737  1.0440  1.0440  0.9741  0.9741  0.4556

[...]

----------------------------------------- Iteration    1(  16)  ---------------------------------------

 eigenvalue-minimisations  : 50760
 total energy-change (2. order) :-0.4854883E-08  (-0.1071424E-10)
 number of electron   44.0000002 magnetization
 augmentation part    28.7705277 magnetization

 Free energy of the ion-electron system (eV)
  alpha Z        PSCENC =       424.96822640
  Ewald energy   TEWEN  =     -4393.14368526
  -1/2 Hartree   DENC   =     -1231.04043572
  -V(xc)+E(xc)   XCENC  =       171.08888700
  PAW double counting   =      4383.04770747    -4961.76772345
  entropy T*S    EENTRO =        -0.00006422
  eigenvalues    EBANDS =        28.05536722
  atomic energy  EATOM  =      5563.91924406
  free energy    TOTEN  =       -14.87247651 eV

  energy without entropy =      -14.87241229  energy(sigma->0) =      -14.87244440

 average (electrostatic) potential at core
  the test charge radii are     1.0053
  (the norm of the test charge is              1.0000)
       1 -40.0427       2 -40.0427       3 -40.0427       4 -40.0427

 E-fermi :   3.6510     XC(G=0): -12.6946     alpha+bet : -9.4584
   add alpha+bet to get absolut eigen values

 k-point   1 :       0.0000    0.0000    0.0000
  band No.  band energies     occupation
      1      -5.5736      2.00000
      2      -1.1520      2.00000
      3      -1.1520      2.00000
      4      -1.1520      2.00000
      5      -0.7113      2.00000
      6      -0.7113      2.00000
      7      -0.7113      2.00000
      8       0.6412      2.00000
      9       0.6412      2.00000
     10       0.6412      2.00000
     11       1.4462      2.00000
     12       1.4462      2.00000
     13       1.9810      2.00000
     14       1.9810      2.00000
     15       1.9810      2.00000
     16       2.1309      2.00000
     17       2.1309      2.00000
     18       2.1309      2.00000
     19       2.1309      2.00000
     20       2.1309      2.00000
     21       2.1309      2.00000
     22       5.1629      0.00000
     23       5.1629      0.00000
     24       5.1629      0.00000
     25      10.6309      0.00000
     26      10.6309      0.00000
     27      10.6309      0.00000
     28      16.6660      0.00000
     29      16.6660      0.00000
     30      16.6660      0.00000
     31      16.6660      0.00000
     32      16.6660      0.00000

[...]

 k-point *** :       0.5000    0.5000    0.5000
  band No.  band energies     occupation
      1      -1.3538      2.00000
      2      -1.3538      2.00000
      3      -1.3538      2.00000
      4      -1.3538      2.00000
      5       0.6130      2.00000
      6       0.6130      2.00000
      7       0.6130      2.00000
      8       0.6130      2.00000
      9       0.6130      2.00000
     10       0.6130      2.00000
     11       0.6130      2.00000
     12       0.6130      2.00000
     13       1.9948      2.00000
     14       1.9948      2.00000
     15       1.9948      2.00000
     16       1.9948      2.00000
     17       1.9948      2.00000
     18       1.9948      2.00000
     19       1.9948      2.00000
     20       1.9948      2.00000
     21       2.6943      2.00000
     22       2.6943      2.00000
     23       2.6943      2.00000
     24       2.6943      2.00000
     25       7.2986      0.00000
     26       7.2986      0.00000
     27       7.2986      0.00000
     28       7.2986      0.00000
     29      24.9549      0.00000
     30      24.9549      0.00000
     31      24.9549      0.00000
     32      24.9549      0.00000

 soft charge-density along one line, spin component           1
         0         1         2         3         4         5         6         7         8         9
 total charge-density along one line

------------------------ aborting loop because EDIFF is reached ----------------------------------------

  FREE ENERGIE OF THE ION-ELECTRON SYSTEM (eV)
  free  energy   TOTEN  =       -14.872477 eV

  energy  without entropy=      -14.872412  energy(sigma->0) =      -14.872444

  FORCE on cell =-STRESS in cart. coord.  units (eV/reduce length):
  Direction    X        Y        Z        XY       YZ       ZX
  Alpha Z    424.97    424.97    424.97
  Ewald    -1464.38  -1464.38  -1464.38     -0.00      0.00      0.00
  Hartree    410.35    410.35    410.35     -0.00     -0.00     -0.00
  E(xc)     -250.55   -250.55   -250.55     -0.00     -0.00      0.00
  Local      485.78    485.78    485.78      0.00      0.00      0.00
  n-local   -142.14   -148.15   -149.32      0.34      1.86      0.66
  augment    226.07    226.07    226.07     -0.00     -0.00     -0.00
  Kinetic    322.11    313.32    307.51     -3.17     -0.04     -1.43
  Total        0.01      0.01      0.01      0.00      0.00      0.00
  in kB        0.22      0.22      0.22      0.00      0.00      0.00

 VOLUME and BASIS-vectors are now :
  energy-cutoff  :     1000.00
  volume of cell :       48.10
      direct lattice vectors                 reciprocal lattice vectors
     3.636824225  0.000000000  0.000000000     0.274965172  0.000000000  0.000000000
     0.000000000  3.636824225  0.000000000     0.000000000  0.274965172  0.000000000
     0.000000000  0.000000000  3.636824225     0.000000000  0.000000000  0.274965172

  length of vectors
     3.636824225  3.636824225  3.636824225     0.274965172  0.274965172  0.274965172

 FORCES acting on ions
    electron-ion (+dipol)            ewald-force                    non-local-force                 convergence-correction
   0.173E-13 0.175E-13 0.150E-14   0.796E-14 -.117E-13 0.259E-14   0.129E-25 0.388E-25 -.517E-25   -.132E-12 -.729E-13 -.984E-13
   -.163E-12 -.930E-12 -.413E-11   0.160E-13 0.220E-14 0.263E-14   -.275E-25 0.258E-25 -.808E-27   0.115E-13 0.734E-13 -.904E-13
   -.166E-12 0.158E-13 -.492E-11   -.347E-14 -.370E-14 -.290E-14   -.291E-25 0.258E-25 0.210E-25   0.129E-13 -.823E-13 0.945E-13
   0.176E-13 -.158E-12 -.178E-12   -.177E-13 0.102E-13 -.285E-14   -.775E-25 0.178E-25 -.646E-26   -.134E-12 0.933E-13 0.650E-13
   -.294E-12 -.105E-11 -.923E-11   0.279E-14 -.300E-14 -.535E-15   -.121E-24 0.108E-24 -.380E-25   -.242E-12 0.116E-13 -.293E-13

 POSITION                                       TOTAL-FORCE (eV/Angst)
      0.00000      0.00000      0.00000         0.000000     -0.000000      0.000000
      1.81841      1.81841      0.00000         0.000000     -0.000000      0.000000
      1.81841      0.00000      1.81841        -0.000000      0.000000      0.000000
      0.00000      1.81841      1.81841        -0.000000      0.000000      0.000000
    total drift:                               -0.000000     -0.000000     -0.000000

 mean value of Nose-termostat <S>:     1.000 mean value of <T> :     0.000
 mean temperature <T/S>/<1/S>  :     0.000