 vasp.4.6.28 25Jul05 complex
 executed on             LinuxIFC date 2017.01.14  09:03:13

 INCAR:
 POTCAR:   PAW_PBE Al 04Jan2001
 POTCAR:   PAW_PBE Al 04Jan2001
   VRHFIN =Al: s2p1

   TITEL  = PAW_PBE Al 04Jan2001
   POMASS =   26.982; ZVAL   =    3.000    mass and valenz
   ENMAX  =  240.300; ENMIN  =  180.225 eV
   QCUT   =   -4.203; QGAM   =    8.405    optimization parameters

   Description
     l     E      TYP  RCUT    TYP  RCUT
     0   .000     23  1.900
     0   .000     23  1.900
     1   .000     23  1.900
     1  1.000     23  1.900
     2   .000      7  1.900

 PAW_PBE Al 04Jan2001                   :

 POSCAR: Al
  positions in direct lattice

 ion  position               nearest neighbor table
   1  0.500  0.500  0.000-   2 2.89   3 2.89   4 2.89   2 2.89   3 2.89   2 2.89   4 2.89   2 2.89
                             3 2.89   4 2.89   3 2.89   4 2.89
   2  0.500  0.000  0.500-   1 2.89   3 2.89   4 2.89   1 2.89   4 2.89   1 2.89   3 2.89   1 2.89
                             3 2.89   4 2.89   4 2.89   3 2.89
   3  0.000  0.500  0.500-   1 2.89   2 2.89   4 2.89   1 2.89   4 2.89   2 2.89   4 2.89   4 2.89
                             1 2.89   2 2.89   1 2.89   2 2.89
   4  0.000  0.000  0.000-   1 2.89   2 2.89   3 2.89   2 2.89   3 2.89   1 2.89   3 2.89   3 2.89
                             1 2.89   2 2.89   2 2.89   1 2.89

  LATTYP: Found a simple cubic cell.
 ALAT       =     4.0802534281

  Lattice vectors:

 A1 = (   4.0802534281,   0.0000000000,   0.0000000000)
 A2 = (   0.0000000000,   4.0802534281,   0.0000000000)
 A3 = (   0.0000000000,   0.0000000000,   4.0802534281)
 Subroutine PRICEL returns following result:

  LATTYP: Found a face centered cubic cell.
 ALAT       =     4.0802534281

  Lattice vectors:

 A1 = (   2.0401267140,   2.0401267140,   0.0000000000)
 A2 = (   2.0401267140,   0.0000000000,  -2.0401267140)
 A3 = (   0.0000000000,   2.0401267140,  -2.0401267140)

   4 primitive cells build up your supercell.

Analysis of symmetry for initial positions (statically):

 Routine SETGRP: Setting up the symmetry group for a
 simple cubic supercell.

 Subroutine GETGRP returns: Found 48 space group operations
 (whereof 48 operations were pure point group operations)
 out of a pool of 48 trial point group operations.

The static configuration has the point symmetry O_h .

Analysis of symmetry for dynamics (positions and initial velocities):

 Subroutine DYNSYM returns: Found 48 space group operations
 (whereof 48 operations were pure point group operations)
 out of a pool of 48 trial space group operations
 (whereof 48 operations were pure point group operations)
 and found also     4 'primitive' translations

The dynamic configuration has the point symmetry O_h .

 KPOINTS: Automatic mesh

Automatic generation of k-mesh.

 Subroutine IBZKPT returns following result:

 Found   1330 irreducible k-points:

 Following reciprocal coordinates:
            Coordinates               Weight
  0.000000  0.000000  0.000000      1.000000
  0.027778  0.000000  0.000000      6.000000
  0.055556  0.000000  0.000000      6.000000
  0.083333  0.000000  0.000000      6.000000
  0.111111  0.000000  0.000000      6.000000
  0.138889  0.000000  0.000000      6.000000
  0.166667  0.000000  0.000000      6.000000
  0.194444  0.000000  0.000000      6.000000
  0.222222  0.000000  0.000000      6.000000
  0.250000  0.000000  0.000000      6.000000
  0.277778  0.000000  0.000000      6.000000
  0.305556  0.000000  0.000000      6.000000
  0.333333  0.000000  0.000000      6.000000
  0.361111  0.000000  0.000000      6.000000
  0.388889  0.000000  0.000000      6.000000
  0.416667  0.000000  0.000000      6.000000
  0.444444  0.000000  0.000000      6.000000
  0.472222  0.000000  0.000000      6.000000
  0.500000  0.000000  0.000000      3.000000
  0.027778  0.027778  0.000000     12.000000
  0.055556  0.027778  0.000000     24.000000
  0.083333  0.027778  0.000000     24.000000
  0.111111  0.027778  0.000000     24.000000
  0.138889  0.027778  0.000000     24.000000
  0.166667  0.027778  0.000000     24.000000
  0.194444  0.027778  0.000000     24.000000
  0.222222  0.027778  0.000000     24.000000
  0.250000  0.027778  0.000000     24.000000
  0.277778  0.027778  0.000000     24.000000
  0.305556  0.027778  0.000000     24.000000
  0.333333  0.027778  0.000000     24.000000
  0.361111  0.027778  0.000000     24.000000
  0.388889  0.027778  0.000000     24.000000
  0.416667  0.027778  0.000000     24.000000
  0.444444  0.027778  0.000000     24.000000
  0.472222  0.027778  0.000000     24.000000
  0.500000  0.027778  0.000000     12.000000
  0.055556  0.055556  0.000000     12.000000
  0.083333  0.055556  0.000000     24.000000
  0.111111  0.055556  0.000000     24.000000
  0.138889  0.055556  0.000000     24.000000
  0.166667  0.055556  0.000000     24.000000
  0.194444  0.055556  0.000000     24.000000
  0.222222  0.055556  0.000000     24.000000
  0.250000  0.055556  0.000000     24.000000
  0.277778  0.055556  0.000000     24.000000
  0.305556  0.055556  0.000000     24.000000
  0.333333  0.055556  0.000000     24.000000
  0.361111  0.055556  0.000000     24.000000
  0.388889  0.055556  0.000000     24.000000
  0.416667  0.055556  0.000000     24.000000
  0.444444  0.055556  0.000000     24.000000
  0.472222  0.055556  0.000000     24.000000
  0.500000  0.055556  0.000000     12.000000
  0.083333  0.083333  0.000000     12.000000
  0.111111  0.083333  0.000000     24.000000
  0.138889  0.083333  0.000000     24.000000
  0.166667  0.083333  0.000000     24.000000
  0.194444  0.083333  0.000000     24.000000
  0.222222  0.083333  0.000000     24.000000
[...]
  0.472222  0.444444  0.416667     48.000000
  0.500000  0.444444  0.416667     24.000000
  0.472222  0.472222  0.416667     24.000000
  0.500000  0.472222  0.416667     24.000000
  0.500000  0.500000  0.416667      6.000000
  0.444444  0.444444  0.444444      8.000000
  0.472222  0.444444  0.444444     24.000000
  0.500000  0.444444  0.444444     12.000000
  0.472222  0.472222  0.444444     24.000000
  0.500000  0.472222  0.444444     24.000000
  0.500000  0.500000  0.444444      6.000000
  0.472222  0.472222  0.472222      8.000000
  0.500000  0.472222  0.472222     12.000000
  0.500000  0.500000  0.472222      6.000000
  0.500000  0.500000  0.500000      1.000000

 Following cartesian coordinates:
            Coordinates               Weight
  0.000000  0.000000  0.000000      1.000000
  0.006876  0.000000  0.000000      6.000000
  0.013752  0.000000  0.000000      6.000000
  0.020628  0.000000  0.000000      6.000000
  0.027504  0.000000  0.000000      6.000000
  0.034380  0.000000  0.000000      6.000000
  0.041256  0.000000  0.000000      6.000000
  0.048132  0.000000  0.000000      6.000000
  0.055007  0.000000  0.000000      6.000000
  0.061883  0.000000  0.000000      6.000000
  0.068759  0.000000  0.000000      6.000000
  0.075635  0.000000  0.000000      6.000000
  0.082511  0.000000  0.000000      6.000000
  0.089387  0.000000  0.000000      6.000000
  0.096263  0.000000  0.000000      6.000000
  0.103139  0.000000  0.000000      6.000000
  0.110015  0.000000  0.000000      6.000000
  0.116891  0.000000  0.000000      6.000000
  0.123767  0.000000  0.000000      3.000000
  0.006876  0.006876  0.000000     12.000000
  0.013752  0.006876  0.000000     24.000000
  0.020628  0.006876  0.000000     24.000000
  0.027504  0.006876  0.000000     24.000000
  0.034380  0.006876  0.000000     24.000000
  0.041256  0.006876  0.000000     24.000000
  0.048132  0.006876  0.000000     24.000000
  0.055007  0.006876  0.000000     24.000000
  0.061883  0.006876  0.000000     24.000000
  0.068759  0.006876  0.000000     24.000000
  0.075635  0.006876  0.000000     24.000000
  0.082511  0.006876  0.000000     24.000000
  0.089387  0.006876  0.000000     24.000000
  0.096263  0.006876  0.000000     24.000000
  0.103139  0.006876  0.000000     24.000000
  0.110015  0.006876  0.000000     24.000000
  0.116891  0.006876  0.000000     24.000000
  0.123767  0.006876  0.000000     12.000000
  0.013752  0.013752  0.000000     12.000000
  0.020628  0.013752  0.000000     24.000000
  0.027504  0.013752  0.000000     24.000000
  0.034380  0.013752  0.000000     24.000000
  0.041256  0.013752  0.000000     24.000000
  0.048132  0.013752  0.000000     24.000000
  0.055007  0.013752  0.000000     24.000000
  0.061883  0.013752  0.000000     24.000000
  0.068759  0.013752  0.000000     24.000000
  0.075635  0.013752  0.000000     24.000000
  0.082511  0.013752  0.000000     24.000000
  0.089387  0.013752  0.000000     24.000000
  0.096263  0.013752  0.000000     24.000000
  0.103139  0.013752  0.000000     24.000000
  0.110015  0.013752  0.000000     24.000000
  0.116891  0.013752  0.000000     24.000000
  0.123767  0.013752  0.000000     12.000000
  0.020628  0.020628  0.000000     12.000000
  0.027504  0.020628  0.000000     24.000000
  0.034380  0.020628  0.000000     24.000000
  0.041256  0.020628  0.000000     24.000000
  0.048132  0.020628  0.000000     24.000000
  0.055007  0.020628  0.000000     24.000000
[...]
  0.116891  0.110015  0.103139     48.000000
  0.123767  0.110015  0.103139     24.000000
  0.116891  0.116891  0.103139     24.000000
  0.123767  0.116891  0.103139     24.000000
  0.123767  0.123767  0.103139      6.000000
  0.110015  0.110015  0.110015      8.000000
  0.116891  0.110015  0.110015     24.000000
  0.123767  0.110015  0.110015     12.000000
  0.116891  0.116891  0.110015     24.000000
  0.123767  0.116891  0.110015     24.000000
  0.123767  0.123767  0.110015      6.000000
  0.116891  0.116891  0.116891      8.000000
  0.123767  0.116891  0.116891     12.000000
  0.123767  0.123767  0.116891      6.000000
  0.123767  0.123767  0.123767      1.000000

 I would recommend the setting:
   dimension x,y,z NGX =    42 NGY =   42 NGZ =   42
 SYSTEM =  unknown system
 POSCAR =  Al

 Startparameter for this run:
   NWRITE =      2    write-flag & timer
   PREC   = accura    medium, high low
   ISTART =      0    job   : 0-new  1-cont  2-samecut
   ICHARG =      2    charge: 1-file 2-atom 10-const
   ISPIN  =      1    spin polarized calculation?
   LNONCOLLINEAR =      F non collinear calculations
   LSORBIT =      F    spin-orbit coupling
   INIWAV =      1    electr: 0-lowe 1-rand  2-diag
   LASPH  =      F    aspherical Exc in radial PAW
   METAGGA=      F    non-selfconsistent MetaGGA calc.

 Electronic Relaxation 1
   ENCUT  = 1000.0 eV  73.50 Ry    8.57 a.u.  10.52 10.52 10.52*2*pi/ulx,y,z
   ENINI  = 1000.0     initial cutoff
   ENAUG  =  291.1 eV  augmentation charge cutoff
   NELM   =     60;   NELMIN=  2; NELMDL= -5     # of ELM steps
   EDIFF  = 0.1E-07   stopping-criterion for ELM
   LREAL  =      F    real-space projection
   LCOMPAT=      F    compatible to vasp.4.4
   LREAL_COMPAT= F    compatible to vasp.4.5.1-3
   GGA_COMPAT  = T    GGA compatible to vasp.4.4-vasp.4.6
   LMAXPAW     = -100 max onsite density
   LMAXMIX     =    2 max onsite mixed and CHGCAR
   VOSKOWN=      0    Vosko Wilk Nusair interpolation
   ROPT   =    0.00000
 Ionic relaxation
   EDIFFG = 0.1E-06   stopping-criterion for IOM
[...]
 k-point  2 :  0.02780.00000.0000  plane waves:   4945
 k-point  3 :  0.05560.00000.0000  plane waves:   4921
 k-point  4 :  0.08330.00000.0000  plane waves:   4897
 k-point  5 :  0.11110.00000.0000  plane waves:   4885
 k-point  6 :  0.13890.00000.0000  plane waves:   4877
 k-point  7 :  0.16670.00000.0000  plane waves:   4873
 k-point  8 :  0.19440.00000.0000  plane waves:   4877
 k-point  9 :  0.22220.00000.0000  plane waves:   4877
 k-point 10 :  0.25000.00000.0000  plane waves:   4901
 k-point 11 :  0.27780.00000.0000  plane waves:   4873
 k-point 12 :  0.30560.00000.0000  plane waves:   4865
 k-point 13 :  0.33330.00000.0000  plane waves:   4869
 k-point 14 :  0.36110.00000.0000  plane waves:   4873
 k-point 15 :  0.38890.00000.0000  plane waves:   4877
 k-point 16 :  0.41670.00000.0000  plane waves:   4893
 k-point 17 :  0.44440.00000.0000  plane waves:   4893
 k-point 18 :  0.47220.00000.0000  plane waves:   4913
 k-point 19 :  0.50000.00000.0000  plane waves:   4918
 k-point 20 :  0.02780.02780.0000  plane waves:   4933
 k-point 21 :  0.05560.02780.0000  plane waves:   4911
 k-point 22 :  0.08330.02780.0000  plane waves:   4898
 k-point 23 :  0.11110.02780.0000  plane waves:   4883
 k-point 24 :  0.13890.02780.0000  plane waves:   4877
 k-point 25 :  0.16670.02780.0000  plane waves:   4879
 k-point 26 :  0.19440.02780.0000  plane waves:   4879
 k-point 27 :  0.22220.02780.0000  plane waves:   4876
 k-point 28 :  0.25000.02780.0000  plane waves:   4877
 k-point 29 :  0.27780.02780.0000  plane waves:   4875
 k-point 30 :  0.30560.02780.0000  plane waves:   4872
 k-point 31 :  0.33330.02780.0000  plane waves:   4881
 k-point 32 :  0.36110.02780.0000  plane waves:   4872
 k-point 33 :  0.38890.02780.0000  plane waves:   4883
 k-point 34 :  0.41670.02780.0000  plane waves:   4890
 k-point 35 :  0.44440.02780.0000  plane waves:   4900
 k-point 36 :  0.47220.02780.0000  plane waves:   4905
 k-point 37 :  0.50000.02780.0000  plane waves:   4902
 k-point 38 :  0.05560.05560.0000  plane waves:   4901
 k-point 39 :  0.08330.05560.0000  plane waves:   4898
 k-point 40 :  0.11110.05560.0000  plane waves:   4890
 k-point 41 :  0.13890.05560.0000  plane waves:   4880
 k-point 42 :  0.16670.05560.0000  plane waves:   4870
 k-point 43 :  0.19440.05560.0000  plane waves:   4878
 k-point 44 :  0.22220.05560.0000  plane waves:   4881
 k-point 45 :  0.25000.05560.0000  plane waves:   4888
 k-point 46 :  0.27780.05560.0000  plane waves:   4884
 k-point 47 :  0.30560.05560.0000  plane waves:   4880
 k-point 48 :  0.33330.05560.0000  plane waves:   4884
 k-point 49 :  0.36110.05560.0000  plane waves:   4888
 k-point 50 :  0.38890.05560.0000  plane waves:   4888
 k-point 51 :  0.41670.05560.0000  plane waves:   4897
 k-point 52 :  0.44440.05560.0000  plane waves:   4896
 k-point 53 :  0.47220.05560.0000  plane waves:   4896
 k-point 54 :  0.50000.05560.0000  plane waves:   4896
 k-point 55 :  0.08330.08330.0000  plane waves:   4893
 k-point 56 :  0.11110.08330.0000  plane waves:   4882
 k-point 57 :  0.13890.08330.0000  plane waves:   4876
 k-point 58 :  0.16670.08330.0000  plane waves:   4876
 k-point 59 :  0.19440.08330.0000  plane waves:   4878
 k-point 60 :  0.22220.08330.0000  plane waves:   4884
[...]
 k-point 85 :  0.50000.11110.0000  plane waves:   4882
 k-point 86 :  0.13890.13890.0000  plane waves:   4881
 k-point 87 :  0.16670.13890.0000  plane waves:   4883
 k-point 88 :  0.19440.13890.0000  plane waves:   4893
 k-point 89 :  0.22220.13890.0000  plane waves:   4885
 k-point 90 :  0.25000.13890.0000  plane waves:   4887
 k-point 91 :  0.27780.13890.0000  plane waves:   4881
 k-point 92 :  0.30560.13890.0000  plane waves:   4882
 k-point 93 :  0.33330.13890.0000  plane waves:   4879
 k-point 94 :  0.36110.13890.0000  plane waves:   4880
 k-point 95 :  0.38890.13890.0000  plane waves:   4888
 k-point 96 :  0.41670.13890.0000  plane waves:   4888
 k-point 97 :  0.44440.13890.0000  plane waves:   4894
 k-point 98 :  0.47220.13890.0000  plane waves:   4884
 k-point 99 :  0.50000.13890.0000  plane waves:   4886
 k-point ** :  0.16670.16670.0000  plane waves:   4881
 k-point ** :  0.19440.16670.0000  plane waves:   4889
 k-point ** :  0.22220.16670.0000  plane waves:   4886
 k-point ** :  0.25000.16670.0000  plane waves:   4885
 k-point ** :  0.27780.16670.0000  plane waves:   4888
 k-point ** :  0.30560.16670.0000  plane waves:   4886
 k-point ** :  0.33330.16670.0000  plane waves:   4876
 k-point ** :  0.36110.16670.0000  plane waves:   4883
 k-point ** :  0.38890.16670.0000  plane waves:   4886
 k-point ** :  0.41670.16670.0000  plane waves:   4888
 k-point ** :  0.44440.16670.0000  plane waves:   4898
 k-point ** :  0.47220.16670.0000  plane waves:   4883
 k-point ** :  0.50000.16670.0000  plane waves:   4890
 k-point ** :  0.19440.19440.0000  plane waves:   4889
 k-point ** :  0.22220.19440.0000  plane waves:   4889
 k-point ** :  0.25000.19440.0000  plane waves:   4889
 k-point ** :  0.27780.19440.0000  plane waves:   4885
 k-point ** :  0.30560.19440.0000  plane waves:   4882
 k-point ** :  0.33330.19440.0000  plane waves:   4889
 k-point ** :  0.36110.19440.0000  plane waves:   4897
 k-point ** :  0.38890.19440.0000  plane waves:   4892
 k-point ** :  0.41670.19440.0000  plane waves:   4894
 k-point ** :  0.44440.19440.0000  plane waves:   4892
 k-point ** :  0.47220.19440.0000  plane waves:   4885
 k-point ** :  0.50000.19440.0000  plane waves:   4886
 k-point ** :  0.22220.22220.0000  plane waves:   4895
 k-point ** :  0.25000.22220.0000  plane waves:   4893
 k-point ** :  0.27780.22220.0000  plane waves:   4893
 k-point ** :  0.30560.22220.0000  plane waves:   4890
 k-point ** :  0.33330.22220.0000  plane waves:   4884
 k-point ** :  0.36110.22220.0000  plane waves:   4893
 k-point ** :  0.38890.22220.0000  plane waves:   4894
 k-point ** :  0.41670.22220.0000  plane waves:   4892
 k-point ** :  0.44440.22220.0000  plane waves:   4881
 k-point ** :  0.47220.22220.0000  plane waves:   4880
 k-point ** :  0.50000.22220.0000  plane waves:   4870
 k-point ** :  0.25000.25000.0000  plane waves:   4903
 k-point ** :  0.27780.25000.0000  plane waves:   4886
 k-point ** :  0.30560.25000.0000  plane waves:   4892
 k-point ** :  0.33330.25000.0000  plane waves:   4894
 k-point ** :  0.36110.25000.0000  plane waves:   4876
 k-point ** :  0.38890.25000.0000  plane waves:   4875
 k-point ** :  0.41670.25000.0000  plane waves:   4871
 k-point ** :  0.44440.25000.0000  plane waves:   4881
 k-point ** :  0.47220.25000.0000  plane waves:   4862
 k-point ** :  0.50000.25000.0000  plane waves:   4858
 k-point ** :  0.27780.27780.0000  plane waves:   4885
 k-point ** :  0.30560.27780.0000  plane waves:   4895
 k-point ** :  0.33330.27780.0000  plane waves:   4887
 k-point ** :  0.36110.27780.0000  plane waves:   4881
 k-point ** :  0.38890.27780.0000  plane waves:   4877
 k-point ** :  0.41670.27780.0000  plane waves:   4875
 k-point ** :  0.44440.27780.0000  plane waves:   4867
 k-point ** :  0.47220.27780.0000  plane waves:   4867
 k-point ** :  0.50000.27780.0000  plane waves:   4864
 k-point ** :  0.30560.30560.0000  plane waves:   4887
 k-point ** :  0.33330.30560.0000  plane waves:   4885
 k-point ** :  0.36110.30560.0000  plane waves:   4885
 k-point ** :  0.38890.30560.0000  plane waves:   4878
 k-point ** :  0.41670.30560.0000  plane waves:   4870
[...]
 k-point ** :  0.47220.44440.4167  plane waves:   4832
 k-point ** :  0.50000.44440.4167  plane waves:   4834
 k-point ** :  0.47220.47220.4167  plane waves:   4836
 k-point ** :  0.50000.47220.4167  plane waves:   4834
 k-point ** :  0.50000.50000.4167  plane waves:   4836
 k-point ** :  0.44440.44440.4444  plane waves:   4836
 k-point ** :  0.47220.44440.4444  plane waves:   4834
 k-point ** :  0.50000.44440.4444  plane waves:   4834
 k-point ** :  0.47220.47220.4444  plane waves:   4832
 k-point ** :  0.50000.47220.4444  plane waves:   4828
 k-point ** :  0.50000.50000.4444  plane waves:   4820
 k-point ** :  0.47220.47220.4722  plane waves:   4836
 k-point ** :  0.50000.47220.4722  plane waves:   4828
 k-point ** :  0.50000.50000.4722  plane waves:   4820
 k-point ** :  0.50000.50000.5000  plane waves:   4776

 maximum and minimum number of plane-waves per node :   4945  4776

 maximum number of plane-waves:   4945
 maximal index in each direction:
   IXMAX= 10   IYMAX= 10   IZMAX= 10
   IXMIN=-11   IYMIN=-11   IZMIN=-10

 WARNING: wrap around error must be expected set NGX to  44
 WARNING: wrap around error must be expected set NGY to  44
 NGZ is ok and might be reduce to  42

 parallel 3dFFT wavefunction:
    minimum data exchange during FFTs selected (reduces bandwidth)
 parallel 3dFFT charge:
    minimum data exchange during FFTs selected (reduces bandwidth)

Broyden mixing: mesh for mixing (old mesh)
   NGX = 21   NGY = 21   NGZ = 21
  (NGX  = 84   NGY  = 84   NGZ  = 84)
 gives a total of   9261 points
 initial charge density was supplied:
 charge density of overlapping atoms calculated
 number of electron   12.0000000 magnetization
 keeping initial charge density in first step

 Maximum index for augmentation-charges        41379 (set IRDMAX)

 First call to EWALD:  gamma=   0.434
 Maximum number of real-space cells 3x 3x 3
 Maximum number of reciprocal cells 3x 3x 3

----------------------------------------- Iteration    1(   1)  ---------------------------------------

 eigenvalue-minimisations  : 42560
 total energy-change (2. order) : 0.1396459E+02  (-0.6173745E+03)
 number of electron   12.0000000 magnetization
 augmentation part    12.0000000 magnetization

 Free energy of the ion-electron system (eV)
  alpha Z        PSCENC =        -0.79112346
  Ewald energy   TEWEN  =      -291.25119765
  -1/2 Hartree   DENC   =        -0.45215013
  -V(xc)+E(xc)   XCENC  =      -105.16539930
  PAW double counting   =       142.21701965      -14.39593217
  entropy T*S    EENTRO =        -0.00006808
  eigenvalues    EBANDS =        69.64882507
  atomic energy  EATOM  =       214.15461818
  free energy    TOTEN  =        13.96459213 eV

  energy without entropy =       13.96466021  energy(sigma->0) =       13.96462617

[...]

 eigenvalue-minimisations  : 55168
 total energy-change (2. order) :-0.2806149E+02  (-0.2629033E+02)
 number of electron   12.0000000 magnetization
 augmentation part    12.0000000 magnetization

[...]

 Broyden mixing:
  rms(total) = 0.18472E+00    rms(broyden)= 0.18472E+00
  rms(prec ) = 0.42949E+00
  weight for this iteration     100.00

[...]

 eigenvalues of (default mixing * dielectric matrix)
  average eigenvalue GAMMA=   2.6285
  2.6285

[...]

 eigenvalue-minimisations  : 39720
 total energy-change (2. order) : 0.1655962E-06  (-0.1388744E-09)
 number of electron   12.0000000 magnetization
 augmentation part    -0.1578162 magnetization

[...]

 Broyden mixing:
  rms(total) = 0.77725E-06    rms(broyden)= 0.77725E-06
  rms(prec ) = 0.14903E-05
  weight for this iteration     100.00

 eigenvalues of (default mixing * dielectric matrix)
  average eigenvalue GAMMA=   1.9023
  2.6703  2.6521  2.6521  2.4426  0.9963  0.9963  0.9061

[...]

----------------------------------------- Iteration    1(  13)  ---------------------------------------

 eigenvalue-minimisations  : 30152
 total energy-change (2. order) :-0.2009415E-09  (-0.3540274E-11)
 number of electron   12.0000000 magnetization
 augmentation part    -0.1578161 magnetization

 Free energy of the ion-electron system (eV)
  alpha Z        PSCENC =        -0.79112346
  Ewald energy   TEWEN  =      -291.25119765
  -1/2 Hartree   DENC   =        -0.40520014
  -V(xc)+E(xc)   XCENC  =      -104.75120158
  PAW double counting   =       142.32599940      -14.53746652
  entropy T*S    EENTRO =        -0.00010259
  eigenvalues    EBANDS =        40.28804839
  atomic energy  EATOM  =       214.15461818
  free energy    TOTEN  =       -14.96762596 eV

  energy without entropy =      -14.96752337  energy(sigma->0) =      -14.96757467

 average (electrostatic) potential at core
  the test charge radii are     1.0406
  (the norm of the test charge is              1.0000)
       1 -72.9650       2 -72.9650       3 -72.9650       4 -72.9650

 E-fermi :   7.7055     XC(G=0): -10.0929     alpha+bet :-14.4537
   add alpha+bet to get absolut eigen values

 k-point   1 :       0.0000    0.0000    0.0000
  band No.  band energies     occupation
      1      -3.2342      2.00000
      2       4.8484      2.00000
      3       4.8484      2.00000
      4       4.8484      2.00000
      5       6.1051      2.00000
      6       6.1051      2.00000
      7       6.1051      2.00000
      8      12.9532      0.00000
      9      12.9532      0.00000
     10      12.9532      0.00000
     11      13.1640      0.00000
     12      13.1640      0.00000
     13      13.1640      0.00000
     14      13.1640      0.00000
     15      13.1640      0.00000
     16      13.1640      0.00000

[...]

 k-point *** :       0.5000    0.5000    0.5000
  band No.  band energies     occupation
      1       3.2240      2.00000
      2       3.2240      2.00000
      3       3.2240      2.00000
      4       3.2240      2.00000
      5       3.3610      2.00000
      6       3.3610      2.00000
      7       3.3610      2.00000
      8       3.3610      2.00000
      9      18.8087      0.00000
     10      18.8087      0.00000
     11      18.8087      0.00000
     12      18.8087      0.00000
     13      18.8087      0.00000
     14      18.8088      0.00000
     15      18.8088      0.00000
     16      18.8105      0.00000

 soft charge-density along one line, spin component           1
         0         1         2         3         4         5         6         7         8         9
 total charge-density along one line

------------------------ aborting loop because EDIFF is reached ----------------------------------------

  FREE ENERGIE OF THE ION-ELECTRON SYSTEM (eV)
  free  energy   TOTEN  =       -14.967626 eV

  energy  without entropy=      -14.967523  energy(sigma->0) =      -14.967575

  FORCE on cell =-STRESS in cart. coord.  units (eV/reduce length):
  Direction    X        Y        Z        XY       YZ       ZX
  Alpha Z     -0.79     -0.79     -0.79
  Ewald      -97.08    -97.08    -97.08     -0.00      0.00      0.00
  Hartree      0.14      0.14      0.14     -0.00     -0.00     -0.00
  E(xc)      -33.95    -33.95    -33.95     -0.00      0.00      0.00
  Local        0.90      0.90      0.90     -0.00      0.00      0.00
  n-local     73.97     74.84     76.57      0.18      0.89      0.36
  augment     -4.21     -4.21     -4.21      0.00     -0.00     -0.00
  Kinetic     56.38     58.22     62.27      1.66     -8.33     -1.82
  Total       -0.92     -0.92     -0.92      0.00     -0.00      0.00
  in kB      -21.62    -21.62    -21.62      0.00     -0.00      0.00

 VOLUME and BASIS-vectors are now :
  energy-cutoff  :     1000.00
  volume of cell :       67.93
      direct lattice vectors                 reciprocal lattice vectors
     4.080253428  0.000000000  0.000000000     0.245082816  0.000000000  0.000000000
     0.000000000  4.080253428  0.000000000     0.000000000  0.245082816  0.000000000
     0.000000000  0.000000000  4.080253428     0.000000000  0.000000000  0.245082816

  length of vectors
     4.080253428  4.080253428  4.080253428     0.245082816  0.245082816  0.245082816

 FORCES acting on ions
    electron-ion (+dipol)            ewald-force                    non-local-force                 convergence-correction
   -.503E-14 -.159E-13 0.978E-13   0.158E-14 0.172E-15 -.592E-15   -.155E-27 -.100E-26 -.535E-27   -.617E-15 0.175E-15 -.387E-16
   -.466E-14 -.599E-16 0.185E-13   0.163E-14 -.132E-15 0.294E-15   -.594E-27 -.255E-26 0.597E-27   -.633E-15 -.177E-15 0.406E-16
   -.107E-14 -.579E-14 -.523E-14   -.168E-14 -.138E-16 0.277E-15   0.251E-26 0.432E-27 -.364E-27   0.583E-15 0.155E-15 0.368E-16
   -.609E-15 0.102E-15 0.496E-15   -.163E-14 -.318E-15 -.151E-15   -.133E-27 0.752E-27 -.103E-26   0.598E-15 -.160E-15 -.439E-16
   -.114E-13 -.216E-13 0.112E-12   -.104E-15 -.291E-15 -.172E-15   0.163E-26 -.236E-26 -.134E-26   -.687E-16 -.740E-17 -.516E-17

 POSITION                                       TOTAL-FORCE (eV/Angst)
      2.04013      2.04013      0.00000        -0.000000     -0.000000      0.000000
      2.04013      0.00000      2.04013        -0.000000      0.000000     -0.000000
      0.00000      2.04013      2.04013         0.000000      0.000000      0.000000
      0.00000      0.00000      0.00000         0.000000      0.000000     -0.000000
    total drift:                               -0.000000     -0.000000      0.000000

 mean value of Nose-termostat <S>:     1.000 mean value of <T> :     0.000
 mean temperature <T/S>/<1/S>  :     0.000