 vasp.4.6.28 25Jul05 complex
 executed on             LinuxIFC date 2017.01.08  09:56:42

 INCAR:
 POTCAR:   PAW_PBE Al 04Jan2001
 POTCAR:   PAW_PBE Al 04Jan2001
   VRHFIN =Al: s2p1

   TITEL  = PAW_PBE Al 04Jan2001
   POMASS =   26.982; ZVAL   =    3.000    mass and valenz
   ENMAX  =  240.300; ENMIN  =  180.225 eV
   QCUT   =   -4.203; QGAM   =    8.405    optimization parameters

   Description
     l     E      TYP  RCUT    TYP  RCUT
     0   .000     23  1.900
     0   .000     23  1.900
     1   .000     23  1.900
     1  1.000     23  1.900
     2   .000      7  1.900

 PAW_PBE Al 04Jan2001                   :

 POSCAR: Al
  positions in direct lattice

 ion  position               nearest neighbor table
   1  0.500  0.500  0.000-   2 2.77   3 2.77   4 2.77   2 2.77   3 2.77   2 2.77   4 2.77   2 2.77
                             3 2.77   4 2.77   3 2.77   4 2.77
   2  0.500  0.000  0.500-   1 2.77   3 2.77   4 2.77   1 2.77   4 2.77   1 2.77   3 2.77   1 2.77
                             3 2.77   4 2.77   4 2.77   3 2.77
   3  0.000  0.500  0.500-   1 2.77   2 2.77   4 2.77   1 2.77   4 2.77   2 2.77   4 2.77   4 2.77
                             1 2.77   2 2.77   1 2.77   2 2.77
   4  0.000  0.000  0.000-   1 2.77   2 2.77   3 2.77   2 2.77   3 2.77   1 2.77   3 2.77   3 2.77
                             1 2.77   2 2.77   2 2.77   1 2.77

  LATTYP: Found a simple cubic cell.
 ALAT       =     3.9161871786

  Lattice vectors:

 A1 = (   3.9161871786,   0.0000000000,   0.0000000000)
 A2 = (   0.0000000000,   3.9161871786,   0.0000000000)
 A3 = (   0.0000000000,   0.0000000000,   3.9161871786)
 Subroutine PRICEL returns following result:

  LATTYP: Found a face centered cubic cell.
 ALAT       =     3.9161871786

  Lattice vectors:

 A1 = (   1.9580935893,   1.9580935893,   0.0000000000)
 A2 = (   1.9580935893,   0.0000000000,  -1.9580935893)
 A3 = (   0.0000000000,   1.9580935893,  -1.9580935893)

   4 primitive cells build up your supercell.

Analysis of symmetry for initial positions (statically):

 Routine SETGRP: Setting up the symmetry group for a
 simple cubic supercell.

 Subroutine GETGRP returns: Found 48 space group operations
 (whereof 48 operations were pure point group operations)
 out of a pool of 48 trial point group operations.

The static configuration has the point symmetry O_h .

Analysis of symmetry for dynamics (positions and initial velocities):

 Subroutine DYNSYM returns: Found 48 space group operations
 (whereof 48 operations were pure point group operations)
 out of a pool of 48 trial space group operations
 (whereof 48 operations were pure point group operations)
 and found also     4 'primitive' translations

The dynamic configuration has the point symmetry O_h .

 KPOINTS: Automatic mesh

Automatic generation of k-mesh.

 Subroutine IBZKPT returns following result:

 Found     84 irreducible k-points:

 Following reciprocal coordinates:
            Coordinates               Weight
  0.000000  0.000000  0.000000      1.000000
  0.083333  0.000000  0.000000      6.000000
  0.166667  0.000000  0.000000      6.000000
  0.250000  0.000000  0.000000      6.000000
  0.333333  0.000000  0.000000      6.000000
  0.416667  0.000000  0.000000      6.000000
  0.500000  0.000000  0.000000      3.000000
  0.083333  0.083333  0.000000     12.000000
  0.166667  0.083333  0.000000     24.000000
  0.250000  0.083333  0.000000     24.000000
  0.333333  0.083333  0.000000     24.000000
  0.416667  0.083333  0.000000     24.000000
  0.500000  0.083333  0.000000     12.000000
  0.166667  0.166667  0.000000     12.000000
  0.250000  0.166667  0.000000     24.000000
  0.333333  0.166667  0.000000     24.000000
  0.416667  0.166667  0.000000     24.000000
  0.500000  0.166667  0.000000     12.000000
  0.250000  0.250000  0.000000     12.000000
  0.333333  0.250000  0.000000     24.000000
  0.416667  0.250000  0.000000     24.000000
  0.500000  0.250000  0.000000     12.000000
  0.333333  0.333333  0.000000     12.000000
  0.416667  0.333333  0.000000     24.000000
  0.500000  0.333333  0.000000     12.000000
  0.416667  0.416667  0.000000     12.000000
  0.500000  0.416667  0.000000     12.000000
  0.500000  0.500000  0.000000      3.000000
  0.083333  0.083333  0.083333      8.000000
  0.166667  0.083333  0.083333     24.000000
  0.250000  0.083333  0.083333     24.000000
  0.333333  0.083333  0.083333     24.000000
  0.416667  0.083333  0.083333     24.000000
  0.500000  0.083333  0.083333     12.000000
  0.166667  0.166667  0.083333     24.000000
  0.250000  0.166667  0.083333     48.000000
  0.333333  0.166667  0.083333     48.000000
  0.416667  0.166667  0.083333     48.000000
  0.500000  0.166667  0.083333     24.000000
  0.250000  0.250000  0.083333     24.000000
  0.333333  0.250000  0.083333     48.000000
  0.416667  0.250000  0.083333     48.000000
  0.500000  0.250000  0.083333     24.000000
  0.333333  0.333333  0.083333     24.000000
  0.416667  0.333333  0.083333     48.000000
  0.500000  0.333333  0.083333     24.000000
  0.416667  0.416667  0.083333     24.000000
  0.500000  0.416667  0.083333     24.000000
  0.500000  0.500000  0.083333      6.000000
  0.166667  0.166667  0.166667      8.000000
  0.250000  0.166667  0.166667     24.000000
  0.333333  0.166667  0.166667     24.000000
  0.416667  0.166667  0.166667     24.000000
  0.500000  0.166667  0.166667     12.000000
  0.250000  0.250000  0.166667     24.000000
  0.333333  0.250000  0.166667     48.000000
  0.416667  0.250000  0.166667     48.000000
  0.500000  0.250000  0.166667     24.000000
  0.333333  0.333333  0.166667     24.000000
  0.416667  0.333333  0.166667     48.000000
[...]
  0.416667  0.333333  0.250000     48.000000
  0.500000  0.333333  0.250000     24.000000
  0.416667  0.416667  0.250000     24.000000
  0.500000  0.416667  0.250000     24.000000
  0.500000  0.500000  0.250000      6.000000
  0.333333  0.333333  0.333333      8.000000
  0.416667  0.333333  0.333333     24.000000
  0.500000  0.333333  0.333333     12.000000
  0.416667  0.416667  0.333333     24.000000
  0.500000  0.416667  0.333333     24.000000
  0.500000  0.500000  0.333333      6.000000
  0.416667  0.416667  0.416667      8.000000
  0.500000  0.416667  0.416667     12.000000
  0.500000  0.500000  0.416667      6.000000
  0.500000  0.500000  0.500000      1.000000

 Following cartesian coordinates:
            Coordinates               Weight
  0.000000  0.000000  0.000000      1.000000
  0.020641  0.000000  0.000000      6.000000
  0.041282  0.000000  0.000000      6.000000
  0.061922  0.000000  0.000000      6.000000
  0.082563  0.000000  0.000000      6.000000
  0.103204  0.000000  0.000000      6.000000
  0.123845  0.000000  0.000000      3.000000
  0.020641  0.020641  0.000000     12.000000
  0.041282  0.020641  0.000000     24.000000
  0.061922  0.020641  0.000000     24.000000
  0.082563  0.020641  0.000000     24.000000
  0.103204  0.020641  0.000000     24.000000
  0.123845  0.020641  0.000000     12.000000
  0.041282  0.041282  0.000000     12.000000
  0.061922  0.041282  0.000000     24.000000
  0.082563  0.041282  0.000000     24.000000
  0.103204  0.041282  0.000000     24.000000
  0.123845  0.041282  0.000000     12.000000
  0.061922  0.061922  0.000000     12.000000
  0.082563  0.061922  0.000000     24.000000
  0.103204  0.061922  0.000000     24.000000
  0.123845  0.061922  0.000000     12.000000
  0.082563  0.082563  0.000000     12.000000
  0.103204  0.082563  0.000000     24.000000
  0.123845  0.082563  0.000000     12.000000
  0.103204  0.103204  0.000000     12.000000
  0.123845  0.103204  0.000000     12.000000
  0.123845  0.123845  0.000000      3.000000
  0.020641  0.020641  0.020641      8.000000
  0.041282  0.020641  0.020641     24.000000
  0.061922  0.020641  0.020641     24.000000
  0.082563  0.020641  0.020641     24.000000
  0.103204  0.020641  0.020641     24.000000
  0.123845  0.020641  0.020641     12.000000
  0.041282  0.041282  0.020641     24.000000
  0.061922  0.041282  0.020641     48.000000
  0.082563  0.041282  0.020641     48.000000
  0.103204  0.041282  0.020641     48.000000
  0.123845  0.041282  0.020641     24.000000
  0.061922  0.061922  0.020641     24.000000
  0.082563  0.061922  0.020641     48.000000
  0.103204  0.061922  0.020641     48.000000
  0.123845  0.061922  0.020641     24.000000
  0.082563  0.082563  0.020641     24.000000
  0.103204  0.082563  0.020641     48.000000
  0.123845  0.082563  0.020641     24.000000
  0.103204  0.103204  0.020641     24.000000
  0.123845  0.103204  0.020641     24.000000
  0.123845  0.123845  0.020641      6.000000
  0.041282  0.041282  0.041282      8.000000
  0.061922  0.041282  0.041282     24.000000
  0.082563  0.041282  0.041282     24.000000
  0.103204  0.041282  0.041282     24.000000
  0.123845  0.041282  0.041282     12.000000
  0.061922  0.061922  0.041282     24.000000
  0.082563  0.061922  0.041282     48.000000
  0.103204  0.061922  0.041282     48.000000
  0.123845  0.061922  0.041282     24.000000
  0.082563  0.082563  0.041282     24.000000
  0.103204  0.082563  0.041282     48.000000
[...]
  0.103204  0.082563  0.061922     48.000000
  0.123845  0.082563  0.061922     24.000000
  0.103204  0.103204  0.061922     24.000000
  0.123845  0.103204  0.061922     24.000000
  0.123845  0.123845  0.061922      6.000000
  0.082563  0.082563  0.082563      8.000000
  0.103204  0.082563  0.082563     24.000000
  0.123845  0.082563  0.082563     12.000000
  0.103204  0.103204  0.082563     24.000000
  0.123845  0.103204  0.082563     24.000000
  0.123845  0.123845  0.082563      6.000000
  0.103204  0.103204  0.103204      8.000000
  0.123845  0.103204  0.103204     12.000000
  0.123845  0.123845  0.103204      6.000000
  0.123845  0.123845  0.123845      1.000000

 I would recommend the setting:
   dimension x,y,z NGX =    35 NGY =   35 NGZ =   35
 SYSTEM =  unknown system
 POSCAR =  Al

 Startparameter for this run:
   NWRITE =      2    write-flag & timer
   PREC   = accura    medium, high low
   ISTART =      0    job   : 0-new  1-cont  2-samecut
   ICHARG =      2    charge: 1-file 2-atom 10-const
   ISPIN  =      1    spin polarized calculation?
   LNONCOLLINEAR =      F non collinear calculations
   LSORBIT =      F    spin-orbit coupling
   INIWAV =      1    electr: 0-lowe 1-rand  2-diag
   LASPH  =      F    aspherical Exc in radial PAW
   METAGGA=      F    non-selfconsistent MetaGGA calc.

 Electronic Relaxation 1
   ENCUT  =  750.0 eV  55.12 Ry    7.42 a.u.   8.74  8.74  8.74*2*pi/ulx,y,z
   ENINI  =  750.0     initial cutoff
   ENAUG  =  291.1 eV  augmentation charge cutoff
   NELM   =     60;   NELMIN=  2; NELMDL=  0     # of ELM steps
   EDIFF  = 0.1E-07   stopping-criterion for ELM
   LREAL  =      F    real-space projection
   LCOMPAT=      F    compatible to vasp.4.4
   LREAL_COMPAT= F    compatible to vasp.4.5.1-3
   GGA_COMPAT  = T    GGA compatible to vasp.4.4-vasp.4.6
   LMAXPAW     = -100 max onsite density
   LMAXMIX     =    2 max onsite mixed and CHGCAR
   VOSKOWN=      0    Vosko Wilk Nusair interpolation
   ROPT   =    0.00000
 Ionic relaxation
   EDIFFG = 0.1E-06   stopping-criterion for IOM
[...]
   0.12384495  0.10320412  0.10320412       0.007
   0.12384495  0.12384495  0.10320412       0.003
   0.12384495  0.12384495  0.12384495       0.001

 k-points in reciprocal lattice and weights: Automatic mesh
   0.00000000  0.00000000  0.00000000       0.001
   0.08333333  0.00000000  0.00000000       0.003
   0.16666667  0.00000000  0.00000000       0.003
   0.25000000  0.00000000  0.00000000       0.003
   0.33333333  0.00000000  0.00000000       0.003
   0.41666667  0.00000000  0.00000000       0.003
   0.50000000  0.00000000  0.00000000       0.002
   0.08333333  0.08333333  0.00000000       0.007
   0.16666667  0.08333333  0.00000000       0.014
   0.25000000  0.08333333  0.00000000       0.014
   0.33333333  0.08333333  0.00000000       0.014
   0.41666667  0.08333333  0.00000000       0.014
   0.50000000  0.08333333  0.00000000       0.007
   0.16666667  0.16666667  0.00000000       0.007
   0.25000000  0.16666667  0.00000000       0.014
   0.33333333  0.16666667  0.00000000       0.014
   0.41666667  0.16666667  0.00000000       0.014
   0.50000000  0.16666667  0.00000000       0.007
   0.25000000  0.25000000  0.00000000       0.007
   0.33333333  0.25000000  0.00000000       0.014
   0.41666667  0.25000000  0.00000000       0.014
   0.50000000  0.25000000  0.00000000       0.007
   0.33333333  0.33333333  0.00000000       0.007
   0.41666667  0.33333333  0.00000000       0.014
   0.50000000  0.33333333  0.00000000       0.007
   0.41666667  0.41666667  0.00000000       0.007
   0.50000000  0.41666667  0.00000000       0.007
   0.50000000  0.50000000  0.00000000       0.002
   0.08333333  0.08333333  0.08333333       0.005
   0.16666667  0.08333333  0.08333333       0.014
   0.25000000  0.08333333  0.08333333       0.014
   0.33333333  0.08333333  0.08333333       0.014
   0.41666667  0.08333333  0.08333333       0.014
   0.50000000  0.08333333  0.08333333       0.007
   0.16666667  0.16666667  0.08333333       0.014
   0.25000000  0.16666667  0.08333333       0.028
   0.33333333  0.16666667  0.08333333       0.028
   0.41666667  0.16666667  0.08333333       0.028
   0.50000000  0.16666667  0.08333333       0.014
   0.25000000  0.25000000  0.08333333       0.014
   0.33333333  0.25000000  0.08333333       0.028
   0.41666667  0.25000000  0.08333333       0.028
   0.50000000  0.25000000  0.08333333       0.014
   0.33333333  0.33333333  0.08333333       0.014
   0.41666667  0.33333333  0.08333333       0.028
   0.50000000  0.33333333  0.08333333       0.014
   0.41666667  0.41666667  0.08333333       0.014
   0.50000000  0.41666667  0.08333333       0.014
   0.50000000  0.50000000  0.08333333       0.003
   0.16666667  0.16666667  0.16666667       0.005
   0.25000000  0.16666667  0.16666667       0.014
   0.33333333  0.16666667  0.16666667       0.014
   0.41666667  0.16666667  0.16666667       0.014
   0.50000000  0.16666667  0.16666667       0.007
   0.25000000  0.25000000  0.16666667       0.014
   0.33333333  0.25000000  0.16666667       0.028
   0.41666667  0.25000000  0.16666667       0.028
   0.50000000  0.25000000  0.16666667       0.014
   0.33333333  0.33333333  0.16666667       0.014
   0.41666667  0.33333333  0.16666667       0.028
[...]
   0.41666667  0.33333333  0.25000000       0.028
   0.50000000  0.33333333  0.25000000       0.014
   0.41666667  0.41666667  0.25000000       0.014
   0.50000000  0.41666667  0.25000000       0.014
   0.50000000  0.50000000  0.25000000       0.003
   0.33333333  0.33333333  0.33333333       0.005
   0.41666667  0.33333333  0.33333333       0.014
   0.50000000  0.33333333  0.33333333       0.007
   0.41666667  0.41666667  0.33333333       0.014
   0.50000000  0.41666667  0.33333333       0.014
   0.50000000  0.50000000  0.33333333       0.003
   0.41666667  0.41666667  0.41666667       0.005
   0.50000000  0.41666667  0.41666667       0.007
   0.50000000  0.50000000  0.41666667       0.003
   0.50000000  0.50000000  0.50000000       0.001

 position of ions in fractional coordinates (direct lattice)
   0.50000000  0.50000000  0.00000000
   0.50000000  0.00000000  0.50000000
   0.00000000  0.50000000  0.50000000
   0.00000000  0.00000000  0.00000000

 position of ions in cartesian coordinates  (Angst):
   1.95809359  1.95809359  0.00000000
   1.95809359  0.00000000  1.95809359
   0.00000000  1.95809359  1.95809359
   0.00000000  0.00000000  0.00000000

 k-point  1 :  0.00000.00000.0000  plane waves:   2801
 k-point  2 :  0.08330.00000.0000  plane waves:   2825
 k-point  3 :  0.16670.00000.0000  plane waves:   2825
 k-point  4 :  0.25000.00000.0000  plane waves:   2809
 k-point  5 :  0.33330.00000.0000  plane waves:   2806
 k-point  6 :  0.41670.00000.0000  plane waves:   2802
 k-point  7 :  0.50000.00000.0000  plane waves:   2826
 k-point  8 :  0.08330.08330.0000  plane waves:   2821
 k-point  9 :  0.16670.08330.0000  plane waves:   2811
 k-point 10 :  0.25000.08330.0000  plane waves:   2799
 k-point 11 :  0.33330.08330.0000  plane waves:   2809
 k-point 12 :  0.41670.08330.0000  plane waves:   2805
 k-point 13 :  0.50000.08330.0000  plane waves:   2802
 k-point 14 :  0.16670.16670.0000  plane waves:   2805
 k-point 15 :  0.25000.16670.0000  plane waves:   2796
 k-point 16 :  0.33330.16670.0000  plane waves:   2797
 k-point 17 :  0.41670.16670.0000  plane waves:   2802
 k-point 18 :  0.50000.16670.0000  plane waves:   2804
 k-point 19 :  0.25000.25000.0000  plane waves:   2782
 k-point 20 :  0.33330.25000.0000  plane waves:   2793
 k-point 21 :  0.41670.25000.0000  plane waves:   2799
 k-point 22 :  0.50000.25000.0000  plane waves:   2802
 k-point 23 :  0.33330.33330.0000  plane waves:   2790
 k-point 24 :  0.41670.33330.0000  plane waves:   2805
 k-point 25 :  0.50000.33330.0000  plane waves:   2804
 k-point 26 :  0.41670.41670.0000  plane waves:   2778
 k-point 27 :  0.50000.41670.0000  plane waves:   2796
 k-point 28 :  0.50000.50000.0000  plane waves:   2752
 k-point 29 :  0.08330.08330.0833  plane waves:   2830
 k-point 30 :  0.16670.08330.0833  plane waves:   2804
 k-point 31 :  0.25000.08330.0833  plane waves:   2790
 k-point 32 :  0.33330.08330.0833  plane waves:   2802
 k-point 33 :  0.41670.08330.0833  plane waves:   2810
 k-point 34 :  0.50000.08330.0833  plane waves:   2800
 k-point 35 :  0.16670.16670.0833  plane waves:   2803
 k-point 36 :  0.25000.16670.0833  plane waves:   2796
 k-point 37 :  0.33330.16670.0833  plane waves:   2797
 k-point 38 :  0.41670.16670.0833  plane waves:   2801
 k-point 39 :  0.50000.16670.0833  plane waves:   2804
 k-point 40 :  0.25000.25000.0833  plane waves:   2799
 k-point 41 :  0.33330.25000.0833  plane waves:   2795
 k-point 42 :  0.41670.25000.0833  plane waves:   2801
 k-point 43 :  0.50000.25000.0833  plane waves:   2794
 k-point 44 :  0.33330.33330.0833  plane waves:   2793
 k-point 45 :  0.41670.33330.0833  plane waves:   2806
 k-point 46 :  0.50000.33330.0833  plane waves:   2804
 k-point 47 :  0.41670.41670.0833  plane waves:   2794
 k-point 48 :  0.50000.41670.0833  plane waves:   2790
 k-point 49 :  0.50000.50000.0833  plane waves:   2780
 k-point 50 :  0.16670.16670.1667  plane waves:   2803
 k-point 51 :  0.25000.16670.1667  plane waves:   2800
 k-point 52 :  0.33330.16670.1667  plane waves:   2789
 k-point 53 :  0.41670.16670.1667  plane waves:   2805
 k-point 54 :  0.50000.16670.1667  plane waves:   2804
 k-point 55 :  0.25000.25000.1667  plane waves:   2792
 k-point 56 :  0.33330.25000.1667  plane waves:   2797
 k-point 57 :  0.41670.25000.1667  plane waves:   2806
 k-point 58 :  0.50000.25000.1667  plane waves:   2800
 k-point 59 :  0.33330.33330.1667  plane waves:   2793
 k-point 60 :  0.41670.33330.1667  plane waves:   2799
[...]
 k-point 70 :  0.41670.33330.2500  plane waves:   2800
 k-point 71 :  0.50000.33330.2500  plane waves:   2804
 k-point 72 :  0.41670.41670.2500  plane waves:   2801
 k-point 73 :  0.50000.41670.2500  plane waves:   2796
 k-point 74 :  0.50000.50000.2500  plane waves:   2792
 k-point 75 :  0.33330.33330.3333  plane waves:   2791
 k-point 76 :  0.41670.33330.3333  plane waves:   2798
 k-point 77 :  0.50000.33330.3333  plane waves:   2800
 k-point 78 :  0.41670.41670.3333  plane waves:   2816
 k-point 79 :  0.50000.41670.3333  plane waves:   2808
 k-point 80 :  0.50000.50000.3333  plane waves:   2804
 k-point 81 :  0.41670.41670.4167  plane waves:   2812
 k-point 82 :  0.50000.41670.4167  plane waves:   2822
 k-point 83 :  0.50000.50000.4167  plane waves:   2820
 k-point 84 :  0.50000.50000.5000  plane waves:   2800

 maximum and minimum number of plane-waves per node :   2830  2752

 maximum number of plane-waves:   2830
 maximal index in each direction:
   IXMAX=  8   IYMAX=  8   IZMAX=  8
   IXMIN= -9   IYMIN= -9   IZMIN= -9

 NGX is ok and might be reduce to  36
 NGY is ok and might be reduce to  36
 NGZ is ok and might be reduce to  36

 parallel 3dFFT wavefunction:
    minimum data exchange during FFTs selected (reduces bandwidth)
 parallel 3dFFT charge:
    minimum data exchange during FFTs selected (reduces bandwidth)

Broyden mixing: mesh for mixing (old mesh)
   NGX = 17   NGY = 17   NGZ = 17
  (NGX  = 72   NGY  = 72   NGZ  = 72)
 gives a total of   4913 points
 initial charge density was supplied:
 charge density of overlapping atoms calculated
 number of electron   12.0000000 magnetization
 keeping initial charge density in first step

 Maximum index for augmentation-charges        58679 (set IRDMAX)

 First call to EWALD:  gamma=   0.453
 Maximum number of real-space cells 3x 3x 3
 Maximum number of reciprocal cells 3x 3x 3

----------------------------------------- Iteration    1(   1)  ---------------------------------------

 eigenvalue-minimisations  :  2016
 total energy-change (2. order) : 0.1455473E+02  (-0.5408764E+03)
 number of electron   12.0000000 magnetization
 augmentation part    12.0000000 magnetization

 Free energy of the ion-electron system (eV)
  alpha Z        PSCENC =        -0.89477812
  Ewald energy   TEWEN  =      -303.45298716
  -1/2 Hartree   DENC   =        -0.29941578
  -V(xc)+E(xc)   XCENC  =      -104.26831623
  PAW double counting   =       142.21701965      -14.39593217
  entropy T*S    EENTRO =        -0.00001471
  eigenvalues    EBANDS =        81.49477165
  atomic energy  EATOM  =       214.15438658
  free energy    TOTEN  =        14.55473371 eV

  energy without entropy =       14.55474843  energy(sigma->0) =       14.55474107

[...]

 eigenvalue-minimisations  :  2504
 total energy-change (2. order) :-0.2843124E+02  (-0.2667901E+02)
 number of electron   12.0000000 magnetization
 augmentation part    12.0000000 magnetization

[...]

 Broyden mixing:
  rms(total) = 0.19475E+00    rms(broyden)= 0.19475E+00
  rms(prec ) = 0.44748E+00
  weight for this iteration     100.00

[...]

 eigenvalues of (default mixing * dielectric matrix)
  average eigenvalue GAMMA=   2.6351
  2.6351

[...]

 eigenvalue-minimisations  :  1504
 total energy-change (2. order) : 0.1197814E-06  (-0.1136831E-09)
 number of electron   12.0000000 magnetization
 augmentation part    -0.1475648 magnetization

[...]

 Broyden mixing:
  rms(total) = 0.63684E-06    rms(broyden)= 0.63682E-06
  rms(prec ) = 0.11267E-05
  weight for this iteration     100.00

 eigenvalues of (default mixing * dielectric matrix)
  average eigenvalue GAMMA=   1.9004
  2.7107  2.6373  2.6373  2.4702  0.9956  0.9956  0.8563

[...]

----------------------------------------- Iteration    1(  13)  ---------------------------------------

 eigenvalue-minimisations  :  1264
 total energy-change (2. order) :-0.1393801E-09  (-0.2611189E-11)
 number of electron   12.0000000 magnetization
 augmentation part    -0.1475649 magnetization

 Free energy of the ion-electron system (eV)
  alpha Z        PSCENC =        -0.89477812
  Ewald energy   TEWEN  =      -303.45298716
  -1/2 Hartree   DENC   =        -0.49182398
  -V(xc)+E(xc)   XCENC  =      -103.74626666
  PAW double counting   =       143.98235191      -16.28047592
  entropy T*S    EENTRO =        -0.00016651
  eigenvalues    EBANDS =        51.90618463
  atomic energy  EATOM  =       214.15438658
  free energy    TOTEN  =       -14.82357524 eV

  energy without entropy =      -14.82340873  energy(sigma->0) =      -14.82349198

 average (electrostatic) potential at core
  the test charge radii are     1.0406
  (the norm of the test charge is              1.0000)
       1 -71.4756       2 -71.4756       3 -71.4756       4 -71.4756

 E-fermi :   9.0093     XC(G=0): -10.5432     alpha+bet :-16.3475
   add alpha+bet to get absolut eigen values

 k-point   1 :       0.0000    0.0000    0.0000
  band No.  band energies     occupation
      1      -2.7830      2.00000
      2       5.8672      2.00000
      3       5.8672      2.00000
      4       5.8672      2.00000
      5       7.3860      2.00000
      6       7.3860      2.00000
      7       7.3860      2.00000
      8      14.2961      0.00000
      9      14.2961      0.00000
     10      14.2961      0.00000
     11      15.0754      0.00000
     12      15.0754      0.00000

[...]

 k-point  84 :       0.5000    0.5000    0.5000
  band No.  band energies     occupation
      1       4.0440      2.00000
      2       4.0440      2.00000
      3       4.0440      2.00000
      4       4.0440      2.00000
      5       4.5074      2.00000
      6       4.5074      2.00000
      7       4.5074      2.00000
      8       4.5074      2.00000
      9      20.9258      0.00000
     10      20.9258      0.00000
     11      20.9258      0.00000
     12      20.9258      0.00000

 soft charge-density along one line, spin component           1
         0         1         2         3         4         5         6         7         8         9
 total charge-density along one line

------------------------ aborting loop because EDIFF is reached ----------------------------------------

  FREE ENERGIE OF THE ION-ELECTRON SYSTEM (eV)
  free  energy   TOTEN  =       -14.823575 eV

  energy  without entropy=      -14.823409  energy(sigma->0) =      -14.823492

  FORCE on cell =-STRESS in cart. coord.  units (eV/reduce length):
  Direction    X        Y        Z        XY       YZ       ZX
  Alpha Z     -0.89     -0.89     -0.89
  Ewald     -101.15   -101.15   -101.15      0.00      0.00      0.00
  Hartree      0.16      0.16      0.16      0.00     -0.00     -0.00
  E(xc)      -35.33    -35.33    -35.33      0.00      0.00      0.00
  Local        2.96      2.96      2.96      0.00      0.00     -0.00
  n-local     76.19     77.05     79.63      0.56      1.38      0.61
  augment     -3.93     -3.93     -3.93      0.00      0.00      0.00
  Kinetic     60.76     64.07     66.83      1.99     -8.25     -1.62
  Total        3.33      3.33      3.33      0.00      0.00      0.00
  in kB       88.94     88.94     88.94      0.00      0.00      0.00

 VOLUME and BASIS-vectors are now :
  energy-cutoff  :      750.00
  volume of cell :       60.06
      direct lattice vectors                 reciprocal lattice vectors
     3.916187179  0.000000000  0.000000000     0.255350410  0.000000000  0.000000000
     0.000000000  3.916187179  0.000000000     0.000000000  0.255350410  0.000000000
     0.000000000  0.000000000  3.916187179     0.000000000  0.000000000  0.255350410

  length of vectors
     3.916187179  3.916187179  3.916187179     0.255350410  0.255350410  0.255350410

 FORCES acting on ions
    electron-ion (+dipol)            ewald-force                    non-local-force                 convergence-correction
   -.227E-14 -.170E-13 0.112E-13   0.115E-14 0.871E-15 -.672E-15   0.000E+00 -.808E-27 0.162E-26   -.132E-17 -.260E-16 0.121E-15
   -.248E-14 -.855E-15 -.596E-13   0.125E-14 -.103E-14 0.353E-15   0.162E-26 0.162E-26 0.646E-26   0.141E-16 0.380E-16 -.126E-15
   -.118E-14 -.444E-14 -.472E-14   -.111E-14 0.920E-15 0.347E-15   -.485E-26 0.323E-26 0.162E-26   0.370E-16 -.393E-16 -.122E-15
   -.123E-14 0.251E-15 -.899E-15   -.101E-14 -.976E-15 -.552E-16   -.364E-26 -.646E-26 -.162E-26   0.250E-16 0.501E-16 0.123E-15
   -.716E-14 -.221E-13 -.540E-13   0.285E-15 -.210E-15 -.265E-16   -.687E-26 -.242E-26 0.808E-26   0.747E-16 0.227E-16 -.343E-17

 POSITION                                       TOTAL-FORCE (eV/Angst)
      1.95809      1.95809      0.00000         0.000000     -0.000000      0.000000
      1.95809      0.00000      1.95809         0.000000     -0.000000      0.000000
      0.00000      1.95809      1.95809         0.000000     -0.000000      0.000000
      0.00000      0.00000      0.00000         0.000000      0.000000      0.000000
    total drift:                               -0.000000     -0.000000     -0.000000

 mean value of Nose-termostat <S>:     1.000 mean value of <T> :     0.000
 mean temperature <T/S>/<1/S>  :     0.000