 vasp.4.6.28 25Jul05 complex
 executed on             LinuxIFC date 2017.01.06  18:54:54

 INCAR:
 POTCAR:   PAW_PBE Au 06Sep2000
 POTCAR:   PAW_PBE Au 06Sep2000
   VRHFIN =Au: s1d10

   TITEL  = PAW_PBE Au 06Sep2000
   POMASS =  196.966; ZVAL   =   11.000    mass and valenz
   ENMAX  =  229.948; ENMIN  =  172.461 eV
   QCUT   =   -4.111; QGAM   =    8.222    optimization parameters

   Description
     l     E      TYP  RCUT    TYP  RCUT
     2   .000     23  2.500
     2   .000     23  2.500
     0   .000     23  2.500
     0   .000     23  2.500
     1  -.200     23  2.500
     1   .000     23  2.500
     3   .000      7   .000

 PAW_PBE Au 06Sep2000                   :

 POSCAR: No title
  positions in direct lattice

 ion  position               nearest neighbor table
   1  0.750  0.750  0.500-   3 2.92  14 2.92  19 2.92  20 2.92   5 2.92  26 2.92   6 2.92  29 2.92
                            11 2.92  18 2.92  10 2.92   8 2.92
   2  0.750  0.750  0.000-   8 2.92  10 2.92  22 2.92  27 2.92  11 2.92  18 2.92  32 2.92   5 2.92
                            26 2.92   3 2.92  20 2.92  12 2.93
   3  0.750  0.000  0.250-   1 2.92   5 2.92   9 2.92  28 2.92  19 2.92  13 2.92  18 2.92  27 2.92
                             6 2.92   2 2.92   4 2.92  12 2.93
   4  0.750  0.250  0.500-   6 2.92   8 2.92  10 2.92  29 2.92  13 2.92  31 2.92  14 2.92  19 2.92
                            21 2.92  28 2.92   3 2.92  20 2.92
   5  0.000  0.750  0.250-   3 2.92  14 2.92  25 2.92  15 2.92   1 2.92  16 2.92  10 2.92   7 2.92
                             2 2.92  22 2.92   6 2.92  12 2.92
   6  0.000  0.000  0.500-   4 2.92   7 2.92  11 2.92  13 2.92   8 2.92  16 2.92   1 2.92  17 2.92
                             3 2.92  23 2.92  21 2.92   5 2.92
   7  0.250  0.750  0.500-   6 2.92  16 2.92  29 2.92  30 2.92  11 2.92  18 2.92  14 2.92  19 2.92
                             5 2.92  26 2.92  25 2.92  23 2.92
   8  0.750  0.000  0.750-   2 2.92   4 2.92  11 2.92  31 2.92  27 2.92   6 2.92  21 2.92  26 2.92
                            19 2.92   1 2.92   9 2.92  12 2.93
   9  0.750  0.250  0.000-   3 2.92  20 2.92  32 2.92  28 2.92  21 2.92  22 2.92  27 2.92  31 2.92
                            13 2.92   8 2.92  10 2.92  12 2.93
  10  0.750  0.500  0.250-   2 2.92   4 2.92  13 2.92  18 2.92  22 2.92  29 2.92  28 2.92   5 2.92
                            14 2.92  32 2.92   9 2.92   1 2.92
  11  0.000  0.750  0.750-   6 2.92   8 2.92  22 2.92  30 2.92   7 2.92   2 2.92  23 2.92  20 2.92
                             1 2.92  15 2.92  14 2.92  12 2.92
  12  0.002  0.000  0.000-  15 2.90  23 2.90  24 2.90  16 2.90   5 2.92  21 2.92  13 2.92  11 2.92
                             9 2.93   3 2.93   2 2.93   8 2.93
  13  0.000  0.250  0.250-   6 2.92  10 2.92  16 2.92  22 2.92   4 2.92  24 2.92   3 2.92  25 2.92
                            17 2.92   9 2.92  14 2.92  12 2.92
  14  0.000  0.500  0.500-   1 2.92   5 2.92  17 2.92  21 2.92  20 2.92  25 2.92   4 2.92   7 2.92
                            10 2.92  30 2.92  13 2.92  11 2.92
  15  0.250  0.750  0.000-  12 2.90  23 2.92  25 2.92  32 2.92  26 2.92   5 2.92  27 2.92  22 2.92
                            11 2.92  18 2.92  30 2.92  16 2.92
  16  0.250  0.000  0.250-  12 2.90   7 2.92  13 2.92  18 2.92  24 2.92   6 2.92  27 2.92   5 2.92
                            28 2.92  19 2.92  17 2.92  15 2.92
  17  0.250  0.250  0.500-  14 2.92  19 2.92  23 2.92  25 2.92  21 2.92  28 2.92   6 2.92  29 2.92
                            13 2.92  31 2.92  30 2.92  16 2.92
  18  0.500  0.750  0.250-  10 2.92  16 2.92  27 2.92  29 2.92   2 2.92   7 2.92   3 2.92  25 2.92
                             1 2.92  15 2.92  19 2.92  32 2.92
  19  0.500  0.000  0.500-   1 2.92  17 2.92  26 2.92  28 2.92   3 2.92  23 2.92   4 2.92   7 2.92
                             8 2.92  16 2.92  18 2.92  31 2.92
  20  0.750  0.500  0.750-   1 2.92   9 2.92  21 2.92  26 2.92  14 2.92  32 2.92  31 2.92  11 2.92
                            22 2.92  29 2.92   4 2.92   2 2.92
  21  0.000  0.250  0.750-  14 2.92  20 2.92  23 2.92   9 2.92  17 2.92   8 2.92  30 2.92  24 2.92
                             4 2.92  22 2.92   6 2.92  12 2.92
  22  0.000  0.500  0.000-   2 2.92  11 2.92  13 2.92  24 2.92  10 2.92  30 2.92   9 2.92  15 2.92
                            25 2.92  20 2.92  21 2.92   5 2.92
  23  0.250  0.000  0.750-  12 2.90  15 2.92  17 2.92  21 2.92  26 2.92  19 2.92  11 2.92  31 2.92
                            27 2.92   6 2.92  24 2.92   7 2.92
  24  0.250  0.250  0.000-  12 2.90  16 2.92  22 2.92  27 2.92  30 2.92  13 2.92  31 2.92  32 2.92
                            28 2.92  21 2.92  25 2.92  23 2.92
  25  0.250  0.500  0.250-   5 2.92  15 2.92  17 2.92  28 2.92  14 2.92  32 2.92  13 2.92  18 2.92
                            29 2.92  22 2.92  24 2.92   7 2.92
  26  0.500  0.750  0.750-  19 2.92  20 2.92  23 2.92  32 2.92   1 2.92  15 2.92  30 2.92   8 2.92
                             7 2.92   2 2.92  27 2.92  29 2.92
  27  0.500  0.000  0.000-   2 2.92  18 2.92  24 2.92  31 2.92  16 2.92   8 2.92   9 2.92  15 2.92
                             3 2.92  23 2.92  28 2.92  26 2.92
  28  0.500  0.250  0.250-   3 2.92  19 2.92  25 2.92  32 2.92  17 2.92   9 2.92  10 2.92  16 2.92
                             4 2.92  24 2.92  29 2.92  27 2.92
  29  0.500  0.500  0.500-   4 2.92   7 2.92  18 2.92  31 2.92  30 2.92  10 2.92  17 2.92   1 2.92
                            20 2.92  25 2.92  26 2.92  28 2.92
  30  0.250  0.500  0.750-   7 2.92  11 2.92  24 2.92  31 2.92  29 2.92  22 2.92  21 2.92  26 2.92
                            14 2.92  32 2.92  17 2.92  15 2.92
  31  0.500  0.250  0.750-   8 2.92  27 2.92  29 2.92  30 2.92  24 2.92   4 2.92  20 2.92  23 2.92
                             9 2.92  17 2.92  19 2.92  32 2.92
  32  0.500  0.500  0.000-   9 2.92  15 2.92  26 2.92  28 2.92  20 2.92  25 2.92  24 2.92   2 2.92
                            10 2.92  30 2.92  18 2.92  31 2.92

  LATTYP: Found a simple cubic cell.
 ALAT       =     8.2552007800

  Lattice vectors:

 A1 = (   8.2552007800,   0.0000000000,   0.0000000000)
 A2 = (   0.0000001500,   8.2552007800,   0.0000000000)
 A3 = (   0.0000001500,   0.0000001500,   8.2552007800)
 Subroutine PRICEL returns:
 Original cell was already a primitive cell.

Analysis of symmetry for initial positions (statically):

 Routine SETGRP: Setting up the symmetry group for a
 simple cubic supercell.

 Subroutine GETGRP returns: Found  8 space group operations
 (whereof  8 operations were pure point group operations)
 out of a pool of 48 trial point group operations.

The static configuration has the point symmetry C_4v.

Analysis of symmetry for dynamics (positions and initial velocities):

 Subroutine DYNSYM returns: Found  8 space group operations
 (whereof  8 operations were pure point group operations)
 out of a pool of  8 trial space group operations
 (whereof  8 operations were pure point group operations)
 and found also     1 'primitive' translations

The dynamic configuration has the point symmetry C_4v.

 KPOINTS: Automatic mesh

Automatic generation of k-mesh.

 Subroutine IBZKPT returns following result:

 Found      6 irreducible k-points:

 Following reciprocal coordinates:
            Coordinates               Weight
  0.000000  0.000000  0.000000      1.000000
  0.333333  0.000000  0.000000      2.000000
  0.000000  0.333333  0.000000      4.000000
  0.333333  0.333333  0.000000      8.000000
  0.000000  0.333333  0.333333      4.000000
  0.333333  0.333333  0.333333      8.000000

 Following cartesian coordinates:
            Coordinates               Weight
  0.000000  0.000000  0.000000      1.000000
  0.040379 -0.000000 -0.000000      2.000000
  0.000000  0.040379 -0.000000      4.000000
  0.040379  0.040379 -0.000000      8.000000
  0.000000  0.040379  0.040379      4.000000
  0.040379  0.040379  0.040379      8.000000

 I would recommend the setting:
   dimension x,y,z NGX =    66 NGY =   66 NGZ =   66
 SYSTEM =  No title
 POSCAR =  No title

 Startparameter for this run:
   NWRITE =      2    write-flag & timer
   PREC   = accura    medium, high low
   ISTART =      1    job   : 0-new  1-cont  2-samecut
   ICHARG =      0    charge: 1-file 2-atom 10-const
   ISPIN  =      1    spin polarized calculation?
   LNONCOLLINEAR =      F non collinear calculations
   LSORBIT =      F    spin-orbit coupling
   INIWAV =      1    electr: 0-lowe 1-rand  2-diag
   LASPH  =      F    aspherical Exc in radial PAW
   METAGGA=      F    non-selfconsistent MetaGGA calc.

 Electronic Relaxation 1
   ENCUT  =  600.0 eV  44.10 Ry    6.64 a.u.  16.49 16.49 16.49*2*pi/ulx,y,z
   ENINI  =  600.0     initial cutoff
   ENAUG  =  356.7 eV  augmentation charge cutoff
   NELM   =     60;   NELMIN=  2; NELMDL=  0     # of ELM steps
   EDIFF  = 0.1E-04   stopping-criterion for ELM
   LREAL  =      F    real-space projection
   LCOMPAT=      F    compatible to vasp.4.4
   LREAL_COMPAT= F    compatible to vasp.4.5.1-3
   GGA_COMPAT  = T    GGA compatible to vasp.4.4-vasp.4.6
   LMAXPAW     = -100 max onsite density
   LMAXMIX     =    2 max onsite mixed and CHGCAR
   VOSKOWN=      1    Vosko Wilk Nusair interpolation
   ROPT   =    0.00000
 Ionic relaxation
   EDIFFG = -.2E-01   stopping-criterion for IOM
   NSW    =      0    number of steps for IOM
   NBLOCK =      1;   KBLOCK =      1    inner block; outer block
   IBRION =     -1    ionic relax: 0-MD 1-quasi-New 2-CG
   NFREE  =      0    steps in history (QN), initial steepest desc. (CG)
   ISIF   =      2    stress and relaxation
   IWAVPR =     10    prediction:  0-non 1-charg 2-wave 3-comb
   ISYM   =      2    0-nonsym 1-usesym 2-fastsym
   LCORR  =      T    Harris-Foulkes like correction to forces

   POTIM  =   0.50    time-step for ionic-motion
   TEIN   =    0.0    initial temperature
   TEBEG  =    0.0;   TEEND  =   0.0 temperature during run
   SMASS  =  -3.00    Nose mass-parameter (am)
   estimated Nose-frequenzy (Omega)   =  0.10E-29 period in steps =****** mass=  -0.156E-26a.u.
   NPACO  =    256;   APACO  = 16.0  distance and # of slots for P.C.
   PSTRESS=    0.0 pullay stress

  Mass of Ions in am
   POMASS = 196.97
  Ionic Valenz
   ZVAL   =  11.00
  Atomic Wigner-Seitz radii
   NELECT =     352.0000    total number of electrons
   NUPDOWN=      -1.0000    fix difference up-down

 DOS related values:
   EMIN   =  10.00;   EMAX   =-10.00  energy-range for DOS
   ISMEAR =     1;   SIGMA  =   0.20  broadening in eV -4-tet -1-fermi 0-gaus

 Electronic relaxation 2 (details)
   IALGO  =     38    algorithm
   LDIAG  =      T    sub-space diagonalisation
   IMIX   =      4    mixing-type and parameters
     AMIX     =   0.40;   BMIX     =  1.00
     AMIX_MAG =   1.60;   BMIX_MAG =  1.00
     AMIN     =   0.10
     WC   =   100.;   INIMIX=   1;  MIXPRE=   1

 Intra band minimization:
   WEIMIN = 0.0000     energy-eigenvalue tresh-hold
   EBREAK =  0.12E-07  absolut break condition
   DEPER  =   0.30     relativ break condition

   TIME   =   0.10     timestep for ELM

  volume/ion in A,a.u.               =      17.58       118.64
  Fermi-wavevector in a.u.,eV,Ry     =   1.400215 26.675613  1.960602

[...]
 number of electron  352.0000008 magnetization
 augmentation part   129.2285757 magnetization

[...]

 eigenvalue-minimisations  :  2752
 total energy-change (2. order) : 0.7919887E-05  (-0.1696427E-04)
 number of electron  352.0000008 magnetization
 augmentation part   129.2202757 magnetization

 Broyden mixing:
  rms(total) = 0.98869E-03    rms(broyden)= 0.98868E-03
  rms(prec ) = 0.14318E-02
  weight for this iteration     100.00

 eigenvalues of (default mixing * dielectric matrix)
  average eigenvalue GAMMA=   1.3810
  2.5389  0.8479  1.0074  1.1208  1.3901

[...]

----------------------------------------- Iteration    1(   7)  ---------------------------------------

 eigenvalue-minimisations  :  1460
 total energy-change (2. order) : 0.4015885E-05  (-0.1334073E-05)
 number of electron  352.0000008 magnetization
 augmentation part   129.2202757 magnetization

 Free energy of the ion-electron system (eV)
  alpha Z        PSCENC =      3408.89140614
  Ewald energy   TEWEN  =    -30966.27595179
  -1/2 Hartree   DENC   =     -3748.18503868
  -V(xc)+E(xc)   XCENC  =       472.78398378
  PAW double counting   =     24069.90465459   -23404.17302018
  entropy T*S    EENTRO =        -0.05287716
  eigenvalues    EBANDS =       429.07753337
  atomic energy  EATOM  =     29633.77399530
  free energy    TOTEN  =      -104.25531463 eV

  energy without entropy =     -104.20243746  energy(sigma->0) =     -104.23768891

 average (electrostatic) potential at core
  the test charge radii are     1.2098
  (the norm of the test charge is              1.0000)
       1 -45.8503       2 -45.8480       3 -45.8480       4 -45.8503       5 -45.8507
       6 -45.8508       7 -45.8511       8 -45.8480       9 -45.8480      10 -45.8503
      11 -45.8507      12 -45.8508      13 -45.8507      14 -45.8508      15 -45.8536
      16 -45.8536      17 -45.8511      18 -45.8507      19 -45.8508      20 -45.8503
      21 -45.8507      22 -45.8508      23 -45.8536      24 -45.8536      25 -45.8511
      26 -45.8507      27 -45.8508      28 -45.8507      29 -45.8508      30 -45.8511
      31 -45.8507      32 -45.8508

 E-fermi :   5.3300     XC(G=0): -12.5339     alpha+bet : -9.8712
   add alpha+bet to get absolut eigen values

 k-point   1 :       0.0000    0.0000    0.0000
  band No.  band energies     occupation
      1      -4.1714      2.00000
      2      -1.8185      2.00000
      3      -1.8117      2.00000
      4      -1.8116      2.00000
      5      -1.8116      2.00000
      6      -1.8116      2.00000
      7      -1.8050      2.00000
      8      -1.7116      2.00000
      9      -1.7115      2.00000
     10      -1.7115      2.00000
     11      -1.7115      2.00000
     12      -1.4690      2.00000
     13      -1.4689      2.00000
     14      -1.4688      2.00000
     15      -1.1780      2.00000
     16      -1.1779      2.00000
     17      -1.1779      2.00000
     18      -0.5337      2.00000
     19      -0.5308      2.00000
     20      -0.5308      2.00000
     21      -0.5270      2.00000
     22      -0.5267      2.00000
     23      -0.5265      2.00000
     24      -0.5265      2.00000
     25      -0.5265      2.00000
     26      -0.5261      2.00000
     27      -0.5225      2.00000
     28      -0.5225      2.00000
     29      -0.5194      2.00000
     30      -0.4179      2.00000
     31      -0.4133      2.00000
     32      -0.4132      2.00000
     33      -0.4132      2.00000
     34      -0.4132      2.00000
     35      -0.4087      2.00000
     36      -0.2867      2.00000
     37      -0.2820      2.00000
     38      -0.2820      2.00000
     39      -0.2820      2.00000
     40      -0.2819      2.00000
     41      -0.2773      2.00000
     42       0.2747      2.00000
     43       0.2807      2.00000
     44       0.2807      2.00000
     45       0.2835      2.00000
     46       0.2836      2.00000
     47       0.2836      2.00000
     48       0.2836      2.00000
     49       0.2836      2.00000
     50       0.2837      2.00000
     51       0.2859      2.00000
     52       0.2859      2.00000
     53       0.2913      2.00000
     54       0.3453      2.00000
     55       0.3453      2.00000
     56       0.3501      2.00000
     57       0.3501      2.00000
     58       0.3501      2.00000
     59       0.3501      2.00000
     60       0.3501      2.00000
[...]
    198      10.9290      0.00000
    199      10.9291      0.00000
    200      11.5703      0.00000
    201      11.5703      0.00000
    202      11.5768      0.00000
    203      11.5768      0.00000
    204      11.5778      0.00000
    205      11.5778      0.00000
    206      11.5779      0.00000
    207      11.5782      0.00000
    208      11.5788      0.00000
    209      11.5788      0.00000
    210      11.5853      0.00000
    211      11.5853      0.00000
    212      13.8127      0.00000

[...]

 k-point   6 :       0.3333    0.3333    0.3333
  band No.  band energies     occupation
      1      -3.2810      2.00000
      2      -2.5130      2.00000
      3      -2.5096      2.00000
      4      -2.5063      2.00000
      5      -1.9762      2.00000
      6      -1.9735      2.00000
      7      -1.9709      2.00000
      8      -1.8500      2.00000
      9      -1.1269      2.00000
     10      -1.1266      2.00000
     11      -1.1263      2.00000
     12      -1.0689      2.00000
     13      -1.0684      2.00000
     14      -1.0682      2.00000
     15      -0.9947      2.00000
     16      -0.9922      2.00000
     17      -0.9897      2.00000
     18      -0.8273      2.00000
     19      -0.8264      2.00000
     20      -0.8238      2.00000
     21      -0.8238      2.00000
     22      -0.8215      2.00000
     23      -0.8206      2.00000
     24      -0.7330      2.00000
     25      -0.7301      2.00000
     26      -0.7284      2.00000
     27      -0.7264      2.00000
     28      -0.7257      2.00000
     29      -0.7240      2.00000
     30      -0.7235      2.00000
     31      -0.7224      2.00000
     32      -0.7210      2.00000
     33      -0.6607      2.00000
     34      -0.6598      2.00000
     35      -0.6589      2.00000
     36      -0.3341      2.00000
     37      -0.3328      2.00000
     38      -0.3316      2.00000
     39      -0.1569      2.00000
     40      -0.1548      2.00000
     41      -0.1534      2.00000
     42      -0.1534      2.00000
     43      -0.1520      2.00000
     44      -0.1502      2.00000
     45       0.1760      2.00000
     46       0.1780      2.00000
     47       0.1797      2.00000
     48       0.2076      2.00000
     49       0.2093      2.00000
     50       0.2107      2.00000
     51       0.2107      2.00000
     52       0.2119      2.00000
     53       0.2141      2.00000
     54       0.3802      2.00000
     55       0.3823      2.00000
     56       0.3844      2.00000
     57       0.4090      2.00000
     58       0.4093      2.00000
     59       0.4099      2.00000
     60       0.5782      2.00000
[...]
    198       9.4031     -0.00000
    199      10.3620     -0.00000
    200      10.3622     -0.00000
    201      10.3650     -0.00000
    202      10.3650     -0.00000
    203      10.3679     -0.00000
    204      10.3681     -0.00000
    205      11.6640      0.00000
    206      11.6646      0.00000
    207      11.6667      0.00000
    208      11.6667      0.00000
    209      11.6688      0.00000
    210      11.6695      0.00000
    211      11.8711      0.00000
    212      11.8716      0.00000

 soft charge-density along one line, spin component           1
         0         1         2         3         4         5         6         7         8         9
 total charge-density along one line

------------------------ aborting loop because EDIFF is reached ----------------------------------------

  FREE ENERGIE OF THE ION-ELECTRON SYSTEM (eV)
  free  energy   TOTEN  =      -104.255315 eV

  energy  without entropy=     -104.202437  energy(sigma->0) =     -104.237689

  FORCE on cell =-STRESS in cart. coord.  units (eV/reduce length):
  Direction    X        Y        Z        XY       YZ       ZX
  Alpha Z   3408.89   3408.89   3408.89
  Ewald   -10322.23 -10322.09 -10322.09     -0.00     -0.00     -0.00
  Hartree   1249.32   1249.42   1249.42     -0.00     -0.00     -0.00
  E(xc)    -1589.32  -1589.32  -1589.32     -0.00     -0.00     -0.00
  Local     2582.62   2582.33   2582.33      0.00      0.00      0.00
  n-local  -1584.58  -1589.97  -1579.17      7.01      6.67      6.34
  augment   1374.01   1373.99   1373.99     -0.00     -0.00     -0.00
  Kinetic   4899.13   4894.03   4904.21      3.22      3.61      4.01
  Total       17.83     17.79     17.79      0.00      0.00      0.00
  in kB       50.78     50.65     50.65      0.00      0.00      0.00

 VOLUME and BASIS-vectors are now :
  energy-cutoff  :      600.00
  volume of cell :      562.58
      direct lattice vectors                 reciprocal lattice vectors
     8.255200780  0.000000000  0.000000000     0.121135758 -0.000000002 -0.000000002
     0.000000150  8.255200780  0.000000000     0.000000000  0.121135758 -0.000000002
     0.000000150  0.000000150  8.255200780     0.000000000  0.000000000  0.121135758

  length of vectors
     8.255200780  8.255200780  8.255200780     0.121135758  0.121135758  0.121135758

 FORCES acting on ions
    electron-ion (+dipol)            ewald-force                    non-local-force                 convergence-correction
   -.349E-01 -.161E+00 0.151E-07   0.358E-01 0.161E+00 -.165E-07   -.617E-03 0.595E-03 0.000E+00   0.200E-03 -.754E-03 -.240E-09
   -.102E+01 -.192E+01 0.105E-07   0.103E+01 0.194E+01 -.340E-09   0.585E-02 0.225E-02 0.000E+00   0.852E-04 0.804E-03 0.349E-09
   -.102E+01 0.321E-07 0.192E+01   0.103E+01 -.349E-07 -.194E+01   0.585E-02 -.409E-10 -.225E-02   0.850E-04 -.263E-09 -.804E-03
   -.349E-01 0.161E+00 -.821E-08   0.358E-01 -.161E+00 0.910E-08   -.617E-03 -.595E-03 0.000E+00   0.200E-03 0.754E-03 0.134E-09
   0.125E+01 -.985E-02 0.985E-02   -.127E+01 0.966E-02 -.966E-02   0.638E-02 -.685E-04 0.685E-04   0.330E-03 0.380E-03 -.380E-03
   0.663E+00 -.269E-08 -.436E-07   -.672E+00 0.179E-08 0.484E-07   0.568E-02 -.124E-18 0.000E+00   0.179E-02 -.487E-09 0.925E-09
   -.286E-01 0.162E+00 -.859E-08   0.295E-01 -.161E+00 0.949E-08   -.569E-03 -.479E-03 0.000E+00   0.759E-04 0.623E-03 0.137E-09
   -.102E+01 -.243E-07 -.192E+01   0.103E+01 0.349E-07 0.194E+01   0.585E-02 0.409E-10 0.225E-02   0.850E-04 0.364E-09 0.804E-03
   -.102E+01 0.192E+01 -.276E-08   0.103E+01 -.194E+01 0.278E-09   0.585E-02 -.225E-02 0.000E+00   0.852E-04 -.804E-03 -.248E-09
   -.349E-01 -.530E-08 0.161E+00   0.358E-01 0.617E-08 -.161E+00   -.617E-03 -.108E-10 -.595E-03   0.200E-03 0.148E-09 0.753E-03
   0.125E+01 -.985E-02 -.985E-02   -.127E+01 0.966E-02 0.966E-02   0.638E-02 -.685E-04 -.685E-04   0.330E-03 0.380E-03 0.380E-03
   0.796E+01 -.123E-06 -.641E-07   -.804E+01 0.139E-06 0.139E-06   -.699E-01 0.122E-18 0.542E-19   0.178E-01 -.145E-08 -.145E-08
   0.125E+01 0.985E-02 0.985E-02   -.127E+01 -.966E-02 -.966E-02   0.638E-02 0.685E-04 0.685E-04   0.330E-03 -.380E-03 -.380E-03
   0.274E+00 -.121E-07 -.121E-07   -.277E+00 0.129E-07 0.129E-07   0.673E-04 -.733E-20 0.000E+00   0.155E-02 0.435E-09 0.435E-09
   -.100E+01 0.195E+01 -.293E-08   0.102E+01 -.197E+01 0.309E-09   0.647E-02 -.278E-02 0.000E+00   -.434E-03 -.377E-03 -.240E-09
   -.100E+01 -.247E-07 -.195E+01   0.102E+01 0.355E-07 0.197E+01   0.647E-02 0.506E-10 0.278E-02   -.434E-03 0.433E-09 0.377E-03
   -.286E-01 -.162E+00 0.148E-07   0.295E-01 0.161E+00 -.162E-07   -.569E-03 0.479E-03 0.136E-19   0.759E-04 -.623E-03 -.296E-09
   -.708E+00 0.267E-02 -.267E-02   0.713E+00 -.289E-02 0.289E-02   -.284E-02 0.104E-03 -.104E-03   -.187E-02 0.100E-03 -.100E-03
   -.535E+00 0.249E-08 0.290E-07   0.528E+00 -.178E-08 -.306E-07   0.627E-02 -.947E-20 -.542E-19   -.371E-02 0.529E-09 -.797E-09
   -.349E-01 0.122E-07 -.161E+00   0.358E-01 -.136E-07 0.161E+00   -.617E-03 0.108E-10 0.595E-03   0.200E-03 -.253E-09 -.753E-03
   0.125E+01 0.985E-02 -.985E-02   -.127E+01 -.966E-02 0.966E-02   0.638E-02 0.685E-04 -.685E-04   0.330E-03 -.380E-03 0.380E-03
   0.663E+00 -.436E-07 -.268E-08   -.672E+00 0.484E-07 0.179E-08   0.568E-02 0.605E-20 0.000E+00   0.179E-02 0.925E-09 -.487E-09
   -.100E+01 0.325E-07 0.195E+01   0.102E+01 -.355E-07 -.197E+01   0.647E-02 -.506E-10 -.278E-02   -.434E-03 -.247E-09 -.377E-03
   -.100E+01 -.195E+01 0.107E-07   0.102E+01 0.197E+01 -.309E-09   0.647E-02 0.278E-02 0.136E-19   -.434E-03 0.377E-03 0.426E-09
   -.286E-01 0.119E-07 -.162E+00   0.295E-01 -.133E-07 0.161E+00   -.569E-03 0.870E-11 0.479E-03   0.759E-04 -.308E-09 -.623E-03
   -.708E+00 0.267E-02 0.267E-02   0.713E+00 -.289E-02 -.289E-02   -.284E-02 0.104E-03 0.104E-03   -.187E-02 0.100E-03 0.100E-03
   -.210E+01 0.591E-08 -.523E-07   0.212E+01 -.238E-08 -.238E-08   -.131E-01 0.526E-21 0.000E+00   0.944E-03 0.105E-08 0.105E-08
   -.708E+00 -.267E-02 -.267E-02   0.713E+00 0.289E-02 0.289E-02   -.284E-02 -.104E-03 -.104E-03   -.187E-02 -.100E-03 -.100E-03
   -.254E+00 0.108E-07 0.108E-07   0.259E+00 -.113E-07 -.113E-07   -.948E-03 -.624E-19 0.000E+00   -.141E-02 -.468E-09 -.467E-09
   -.286E-01 -.566E-08 0.162E+00   0.295E-01 0.656E-08 -.161E+00   -.569E-03 -.870E-11 -.479E-03   0.759E-04 0.148E-09 0.623E-03
   -.708E+00 -.267E-02 0.267E-02   0.713E+00 0.289E-02 -.289E-02   -.284E-02 -.104E-03 0.104E-03   -.187E-02 -.100E-03 0.100E-03
   -.535E+00 0.289E-07 0.250E-08   0.528E+00 -.306E-07 -.178E-08   0.627E-02 0.112E-19 0.136E-19   -.371E-02 -.797E-09 0.529E-09
   -.810E-02 -.410E-11 0.160E-10   0.391E-12 -.183E-12 -.731E-13   -.128E-02 0.458E-18 0.285E-18   0.856E-02 -.837E-10 -.847E-10

 POSITION                                       TOTAL-FORCE (eV/Angst)
      6.19140      6.19140      4.12760         0.000431     -0.000792      0.000000
      6.19140      6.19140      0.00000         0.019304      0.022300      0.000000
      6.19140      0.00000      2.06380         0.019304     -0.000000     -0.022300
      6.19140      2.06380      4.12760         0.000431      0.000792      0.000000
      0.00000      6.19140      2.06380        -0.007204      0.000124     -0.000124
      0.00000      0.00000      4.12760        -0.001803      0.000000      0.000000
      2.06380      6.19140      4.12760         0.000417      0.000722     -0.000000
      6.19140      0.00000      6.19140         0.019304      0.000000      0.022300
      6.19140      2.06380      0.00000         0.019304     -0.022300      0.000000
      6.19140      4.12760      2.06380         0.000431      0.000000      0.000792
      0.00000      6.19140      6.19140        -0.007204      0.000124      0.000124
      0.02000      0.00000      0.00000        -0.131575      0.000000     -0.000000
      0.00000      2.06380      2.06380        -0.007204     -0.000124     -0.000124
      0.00000      4.12760      4.12760        -0.001991     -0.000000      0.000000
      2.06380      6.19140      0.00000         0.020295     -0.023850     -0.000000
      2.06380      0.00000      2.06380         0.020295      0.000000      0.023850
      2.06380      2.06380      4.12760         0.000417     -0.000722      0.000000
      4.12760      6.19140      2.06380         0.000451     -0.000021      0.000021
      4.12760      0.00000      4.12760        -0.003964      0.000000     -0.000000
      6.19140      4.12760      6.19140         0.000431     -0.000000     -0.000792
      0.00000      2.06380      6.19140        -0.007204     -0.000124      0.000124
      0.00000      4.12760      0.00000        -0.001803      0.000000      0.000000
      2.06380      0.00000      6.19140         0.020295     -0.000000     -0.023850
      2.06380      2.06380      0.00000         0.020295      0.023850     -0.000000
      2.06380      4.12760      2.06380         0.000417     -0.000000     -0.000722
      4.12760      6.19140      6.19140         0.000451     -0.000021     -0.000021
      4.12760      0.00000      0.00000         0.007369     -0.000000      0.000000
      4.12760      2.06380      2.06380         0.000451      0.000021      0.000021
      4.12760      4.12760      4.12760         0.002953     -0.000000      0.000000
      2.06380      4.12760      6.19140         0.000417      0.000000      0.000722
      4.12760      2.06380      6.19140         0.000451      0.000021     -0.000021
      4.12760      4.12760      0.00000        -0.003964      0.000000      0.000000
    total drift:                               -0.000825     -0.000000     -0.000000

 mean value of Nose-termostat <S>:     1.000 mean value of <T> :     0.000
 mean temperature <T/S>/<1/S>  :     0.000