 vasp.4.6.28 25Jul05 complex
 executed on             LinuxIFC date 2016.01.16  20:46:49

 INCAR:
 POTCAR:   PAW_PBE Cu 05Jan2001
 POTCAR:   PAW_PBE Cu 05Jan2001
   VRHFIN =Cu: d10 p1

   TITEL  = PAW_PBE Cu 05Jan2001
   POMASS =   63.546; ZVAL   =   11.000    mass and valenz
   ENMAX  =  273.214; ENMIN  =  204.910 eV
   QCUT   =   -4.481; QGAM   =    8.962    optimization parameters

   Description
     l     E      TYP  RCUT    TYP  RCUT
     2   .000     23  2.300
     2   .000     23  2.300
     0   .000     23  2.300
     0   .000     23  2.300
     1  -.200     23  2.300
     1   .000     23  2.300
     3   .000      7   .000

 PAW_PBE Cu 05Jan2001                   :

 POSCAR: Cu
  positions in direct lattice

 ion  position               nearest neighbor table
   1  0.000  0.000  0.000-   9 2.62  10 2.62  11 2.62  12 2.62  17 2.62  18 2.62  21 2.62  22 2.62
                            25 2.62  27 2.62  29 2.62  31 2.62
   2  0.500  0.000  0.000-   9 2.62  10 2.62  11 2.62  12 2.62  17 2.62  18 2.62  21 2.62  22 2.62
                            26 2.62  28 2.62  30 2.62  32 2.62
   3  0.000  0.500  0.000-   9 2.62  10 2.62  11 2.62  12 2.62  19 2.62  20 2.62  23 2.62  24 2.62
                            25 2.62  27 2.62  29 2.62  31 2.62
   4  0.500  0.500  0.000-   9 2.62  10 2.62  11 2.62  12 2.62  19 2.62  20 2.62  23 2.62  24 2.62
                            26 2.62  28 2.62  30 2.62  32 2.62
   5  0.000  0.000  0.500-  13 2.62  14 2.62  15 2.62  16 2.62  17 2.62  18 2.62  21 2.62  22 2.62
                            25 2.62  27 2.62  29 2.62  31 2.62
   6  0.500  0.000  0.500-  13 2.62  14 2.62  15 2.62  16 2.62  17 2.62  18 2.62  21 2.62  22 2.62
                            26 2.62  28 2.62  30 2.62  32 2.62
   7  0.000  0.500  0.500-  13 2.62  14 2.62  15 2.62  16 2.62  19 2.62  20 2.62  23 2.62  24 2.62
                            25 2.62  27 2.62  29 2.62  31 2.62
   8  0.500  0.500  0.500-  13 2.62  14 2.62  15 2.62  16 2.62  19 2.62  20 2.62  23 2.62  24 2.62
                            26 2.62  28 2.62  30 2.62  32 2.62
   9  0.250  0.250  0.000-   1 2.62   2 2.62   3 2.62   4 2.62  17 2.62  19 2.62  21 2.62  23 2.62
                            25 2.62  26 2.62  29 2.62  30 2.62
  10  0.750  0.250  0.000-   1 2.62   2 2.62   3 2.62   4 2.62  18 2.62  20 2.62  22 2.62  24 2.62
                            25 2.62  26 2.62  29 2.62  30 2.62
  11  0.250  0.750  0.000-   1 2.62   2 2.62   3 2.62   4 2.62  17 2.62  19 2.62  21 2.62  23 2.62
                            27 2.62  28 2.62  31 2.62  32 2.62
  12  0.750  0.750  0.000-   1 2.62   2 2.62   3 2.62   4 2.62  18 2.62  20 2.62  22 2.62  24 2.62
                            27 2.62  28 2.62  31 2.62  32 2.62
  13  0.250  0.250  0.500-   5 2.62   6 2.62   7 2.62   8 2.62  17 2.62  19 2.62  21 2.62  23 2.62
                            25 2.62  26 2.62  29 2.62  30 2.62
  14  0.750  0.250  0.500-   5 2.62   6 2.62   7 2.62   8 2.62  18 2.62  20 2.62  22 2.62  24 2.62
                            25 2.62  26 2.62  29 2.62  30 2.62
  15  0.250  0.750  0.500-   5 2.62   6 2.62   7 2.62   8 2.62  17 2.62  19 2.62  21 2.62  23 2.62
                            27 2.62  28 2.62  31 2.62  32 2.62
  16  0.750  0.750  0.500-   5 2.62   6 2.62   7 2.62   8 2.62  18 2.62  20 2.62  22 2.62  24 2.62
                            27 2.62  28 2.62  31 2.62  32 2.62
  17  0.250  0.000  0.250-   1 2.62   2 2.62   5 2.62   6 2.62   9 2.62  11 2.62  13 2.62  15 2.62
                            25 2.62  26 2.62  27 2.62  28 2.62
  18  0.750  0.000  0.250-   1 2.62   2 2.62   5 2.62   6 2.62  10 2.62  12 2.62  14 2.62  16 2.62
                            25 2.62  26 2.62  27 2.62  28 2.62
  19  0.250  0.500  0.250-   3 2.62   4 2.62   7 2.62   8 2.62   9 2.62  11 2.62  13 2.62  15 2.62
                            25 2.62  26 2.62  27 2.62  28 2.62
  20  0.750  0.500  0.250-   3 2.62   4 2.62   7 2.62   8 2.62  10 2.62  12 2.62  14 2.62  16 2.62
                            25 2.62  26 2.62  27 2.62  28 2.62
  21  0.250  0.000  0.750-   1 2.62   2 2.62   5 2.62   6 2.62   9 2.62  11 2.62  13 2.62  15 2.62
                            29 2.62  30 2.62  31 2.62  32 2.62
  22  0.750  0.000  0.750-   1 2.62   2 2.62   5 2.62   6 2.62  10 2.62  12 2.62  14 2.62  16 2.62
                            29 2.62  30 2.62  31 2.62  32 2.62
  23  0.250  0.500  0.750-   3 2.62   4 2.62   7 2.62   8 2.62   9 2.62  11 2.62  13 2.62  15 2.62
                            29 2.62  30 2.62  31 2.62  32 2.62
  24  0.750  0.500  0.750-   3 2.62   4 2.62   7 2.62   8 2.62  10 2.62  12 2.62  14 2.62  16 2.62
                            29 2.62  30 2.62  31 2.62  32 2.62
  25  0.000  0.250  0.250-   1 2.62   3 2.62   5 2.62   7 2.62   9 2.62  10 2.62  13 2.62  14 2.62
                            17 2.62  18 2.62  19 2.62  20 2.62
  26  0.500  0.250  0.250-   2 2.62   4 2.62   6 2.62   8 2.62   9 2.62  10 2.62  13 2.62  14 2.62
                            17 2.62  18 2.62  19 2.62  20 2.62
  27  0.000  0.750  0.250-   1 2.62   3 2.62   5 2.62   7 2.62  11 2.62  12 2.62  15 2.62  16 2.62
                            17 2.62  18 2.62  19 2.62  20 2.62
  28  0.500  0.750  0.250-   2 2.62   4 2.62   6 2.62   8 2.62  11 2.62  12 2.62  15 2.62  16 2.62
                            17 2.62  18 2.62  19 2.62  20 2.62
  29  0.000  0.250  0.750-   1 2.62   3 2.62   5 2.62   7 2.62   9 2.62  10 2.62  13 2.62  14 2.62
                            21 2.62  22 2.62  23 2.62  24 2.62
  30  0.500  0.250  0.750-   2 2.62   4 2.62   6 2.62   8 2.62   9 2.62  10 2.62  13 2.62  14 2.62
                            21 2.62  22 2.62  23 2.62  24 2.62
  31  0.000  0.750  0.750-   1 2.62   3 2.62   5 2.62   7 2.62  11 2.62  12 2.62  15 2.62  16 2.62
                            21 2.62  22 2.62  23 2.62  24 2.62
  32  0.500  0.750  0.750-   2 2.62   4 2.62   6 2.62   8 2.62  11 2.62  12 2.62  15 2.62  16 2.62
                            21 2.62  22 2.62  23 2.62  24 2.62

  LATTYP: Found a simple cubic cell.
 ALAT       =     7.4182882559

  Lattice vectors:

 A1 = (   7.4182882559,   0.0000000000,   0.0000000000)
 A2 = (   0.0000000000,   7.4182882559,   0.0000000000)
 A3 = (   0.0000000000,   0.0000000000,   7.4182882559)
 Subroutine PRICEL returns following result:

  LATTYP: Found a face centered cubic cell.
 ALAT       =     3.7091441280

  Lattice vectors:

 A1 = (   1.8545720640,   1.8545720640,   0.0000000000)
 A2 = (   1.8545720640,   0.0000000000,  -1.8545720640)
 A3 = (   0.0000000000,   1.8545720640,  -1.8545720640)

  32 primitive cells build up your supercell.

Analysis of symmetry for initial positions (statically):

 Routine SETGRP: Setting up the symmetry group for a
 simple cubic supercell.

 Subroutine GETGRP returns: Found 48 space group operations
 (whereof 48 operations were pure point group operations)
 out of a pool of 48 trial point group operations.

The static configuration has the point symmetry O_h .

Analysis of symmetry for dynamics (positions and initial velocities):

 Subroutine DYNSYM returns: Found 48 space group operations
 (whereof 48 operations were pure point group operations)
 out of a pool of 48 trial space group operations
 (whereof 48 operations were pure point group operations)
 and found also    32 'primitive' translations

The dynamic configuration has the point symmetry O_h .

 KPOINTS: Automatic mesh

Automatic generation of k-mesh.
 generate k-points for:   7   7   7

 Subroutine IBZKPT returns following result:

 Found     20 irreducible k-points:

 Following reciprocal coordinates:
            Coordinates               Weight
  0.000000  0.000000  0.000000      1.000000
  0.142857  0.000000  0.000000      6.000000
  0.285714  0.000000  0.000000      6.000000
  0.428571  0.000000  0.000000      6.000000
  0.142857  0.142857  0.000000     12.000000
  0.285714  0.142857  0.000000     24.000000
  0.428571  0.142857  0.000000     24.000000
  0.285714  0.285714  0.000000     12.000000
  0.428571  0.285714  0.000000     24.000000
  0.428571  0.428571  0.000000     12.000000
  0.142857  0.142857  0.142857      8.000000
  0.285714  0.142857  0.142857     24.000000
  0.428571  0.142857  0.142857     24.000000
  0.285714  0.285714  0.142857     24.000000
  0.428571  0.285714  0.142857     48.000000
  0.428571  0.428571  0.142857     24.000000
  0.285714  0.285714  0.285714      8.000000
  0.428571  0.285714  0.285714     24.000000
  0.428571  0.428571  0.285714     24.000000
  0.428571  0.428571  0.428571      8.000000

 Following cartesian coordinates:
            Coordinates               Weight
  0.000000  0.000000  0.000000      1.000000
  0.019257  0.000000  0.000000      6.000000
  0.038515  0.000000  0.000000      6.000000
  0.057772  0.000000  0.000000      6.000000
  0.019257  0.019257  0.000000     12.000000
  0.038515  0.019257  0.000000     24.000000
  0.057772  0.019257  0.000000     24.000000
  0.038515  0.038515  0.000000     12.000000
  0.057772  0.038515  0.000000     24.000000
  0.057772  0.057772  0.000000     12.000000
  0.019257  0.019257  0.019257      8.000000
  0.038515  0.019257  0.019257     24.000000
  0.057772  0.019257  0.019257     24.000000
  0.038515  0.038515  0.019257     24.000000
  0.057772  0.038515  0.019257     48.000000
  0.057772  0.057772  0.019257     24.000000
  0.038515  0.038515  0.038515      8.000000
  0.057772  0.038515  0.038515     24.000000
  0.057772  0.057772  0.038515     24.000000
  0.057772  0.057772  0.057772      8.000000

 I would recommend the setting:
   dimension x,y,z NGX =    54 NGY =   54 NGZ =   54
 SYSTEM =  unknown system
 POSCAR =  Cu

 Startparameter for this run:
   NWRITE =      2    write-flag & timer
   PREC   = accura    medium, high low
   ISTART =      0    job   : 0-new  1-cont  2-samecut
   ICHARG =      2    charge: 1-file 2-atom 10-const
   ISPIN  =      1    spin polarized calculation?
   LNONCOLLINEAR =      F non collinear calculations
   LSORBIT =      F    spin-orbit coupling
   INIWAV =      1    electr: 0-lowe 1-rand  2-diag
   LASPH  =      F    aspherical Exc in radial PAW
   METAGGA=      F    non-selfconsistent MetaGGA calc.

 Electronic Relaxation 1
   ENCUT  =  500.0 eV  36.75 Ry    6.06 a.u.  13.53 13.53 13.53*2*pi/ulx,y,z
   ENINI  =  500.0     initial cutoff
   ENAUG  =  516.5 eV  augmentation charge cutoff
   NELM   =     60;   NELMIN=  2; NELMDL=  0     # of ELM steps
   EDIFF  = 0.1E-07   stopping-criterion for ELM
   LREAL  =      F    real-space projection
   LCOMPAT=      F    compatible to vasp.4.4
   LREAL_COMPAT= F    compatible to vasp.4.5.1-3
   GGA_COMPAT  = T    GGA compatible to vasp.4.4-vasp.4.6
   LMAXPAW     = -100 max onsite density
   LMAXMIX     =    2 max onsite mixed and CHGCAR
   VOSKOWN=      0    Vosko Wilk Nusair interpolation
   ROPT   =    0.00000
 Ionic relaxation
   EDIFFG = 0.1E-06   stopping-criterion for IOM
   NSW    =      0    number of steps for IOM
   NBLOCK =      1;   KBLOCK =      1    inner block; outer block
   IBRION =     -1    ionic relax: 0-MD 1-quasi-New 2-CG
   NFREE  =      0    steps in history (QN), initial steepest desc. (CG)
   ISIF   =      2    stress and relaxation
[...]
  average eigenvalue GAMMA=   0.6675
  0.6675

[...]

 eigenvalue-minimisations  :  4800
 total energy-change (2. order) : 0.3243622E-07  (-0.6602412E-10)
 number of electron  352.0000040 magnetization
 augmentation part   230.6101164 magnetization

 Broyden mixing:
  rms(total) = 0.38115E-05    rms(broyden)= 0.38113E-05
  rms(prec ) = 0.54815E-05
  weight for this iteration     100.00

 eigenvalues of (default mixing * dielectric matrix)
  average eigenvalue GAMMA=   1.6101
  2.9212  2.5738  2.5738  2.4625  0.6787  1.2914  1.2914  0.9463  0.9463  1.0127
  1.0127

[...]

----------------------------------------- Iteration    1(  17)  ---------------------------------------

 eigenvalue-minimisations  :  4800
 total energy-change (2. order) :-0.8993084E-08  (-0.7282244E-11)
 number of electron  352.0000040 magnetization
 augmentation part   230.6101164 magnetization

 Free energy of the ion-electron system (eV)
  alpha Z        PSCENC =      3204.73595890
  Ewald energy   TEWEN  =    -34459.90243436
  -1/2 Hartree   DENC   =    -10230.20576651
  -V(xc)+E(xc)   XCENC  =      1364.85030057
  PAW double counting   =     34805.70351185   -39428.33391855
  entropy T*S    EENTRO =        -0.00107971
  eigenvalues    EBANDS =       113.40606659
  atomic energy  EATOM  =     44511.25856501
  free energy    TOTEN  =      -118.48879621 eV

  energy without entropy =     -118.48771650  energy(sigma->0) =     -118.48825635

 average (electrostatic) potential at core
  the test charge radii are     1.0053
  (the norm of the test charge is              1.0000)
       1 -40.3986       2 -40.3986       3 -40.3986       4 -40.3986       5 -40.3986
       6 -40.3986       7 -40.3986       8 -40.3986       9 -40.3986      10 -40.3986
      11 -40.3986      12 -40.3986      13 -40.3986      14 -40.3986      15 -40.3986
      16 -40.3986      17 -40.3986      18 -40.3986      19 -40.3986      20 -40.3986
      21 -40.3986      22 -40.3986      23 -40.3986      24 -40.3986      25 -40.3986
      26 -40.3986      27 -40.3986      28 -40.3986      29 -40.3986      30 -40.3986
      31 -40.3986      32 -40.3986

 E-fermi :   3.1552     XC(G=0): -12.3554     alpha+bet : -8.9158
   add alpha+bet to get absolut eigen values

 k-point   1 :       0.0000    0.0000    0.0000
  band No.  band energies     occupation
      1      -5.6212      2.00000
      2      -2.9879      2.00000
      3      -2.9879      2.00000
      4      -2.9879      2.00000
      5      -2.9879      2.00000
      6      -2.9879      2.00000
      7      -2.9879      2.00000
      8      -1.5221      2.00000
      9      -1.5221      2.00000
     10      -1.5221      2.00000
     11      -1.5221      2.00000
     12      -1.3078      2.00000
     13      -1.3078      2.00000
     14      -1.3078      2.00000
     15      -1.1827      2.00000
     16      -1.1827      2.00000
     17      -1.1827      2.00000
     18      -1.1827      2.00000
     19      -1.1827      2.00000
     20      -1.1827      2.00000
     21      -1.1827      2.00000
     22      -1.1827      2.00000
     23      -1.1827      2.00000
     24      -1.1827      2.00000
     25      -1.1827      2.00000
     26      -1.1827      2.00000
     27      -0.9036      2.00000
     28      -0.9036      2.00000
     29      -0.9036      2.00000
     30      -0.6363      2.00000
     31      -0.6363      2.00000
     32      -0.6363      2.00000
     33      -0.6363      2.00000
     34      -0.6363      2.00000
     35      -0.6363      2.00000
     36      -0.3014      2.00000
     37      -0.3014      2.00000
     38      -0.3014      2.00000
     39      -0.3014      2.00000
     40      -0.3014      2.00000
     41      -0.3014      2.00000
     42      -0.1082      2.00000
     43      -0.1082      2.00000
     44      -0.1082      2.00000
     45      -0.1082      2.00000
     46      -0.1082      2.00000
     47      -0.1082      2.00000
     48      -0.1082      2.00000
     49      -0.1082      2.00000
     50      -0.1082      2.00000
     51      -0.1082      2.00000
     52      -0.1082      2.00000
     53      -0.1082      2.00000
     54      -0.1066      2.00000
     55      -0.1066      2.00000
     56      -0.1066      2.00000
     57      -0.1066      2.00000
     58      -0.1066      2.00000
     59      -0.1066      2.00000
     60      -0.1066      2.00000
[...]
    202       9.0881      0.00000
    203       9.7484      0.00000
    204       9.7484      0.00000
    205       9.7484      0.00000
    206      11.1100      0.00000
    207      11.1100      0.00000
    208      11.1100      0.00000
    209      11.1100      0.00000
    210      11.1100      0.00000
    211      11.1100      0.00000
    212      11.2972      0.00000
    213      11.2972      0.00000
    214      11.2972      0.00000
    215      11.2972      0.00000
    216      11.2972      0.00000

[...]

 k-point  20 :       0.4286    0.4286    0.4286
  band No.  band energies     occupation
      1      -4.1038      2.00000
      2      -3.7395      2.00000
      3      -3.7395      2.00000
      4      -3.7395      2.00000
      5      -3.3944      2.00000
      6      -3.3944      2.00000
      7      -3.3944      2.00000
      8      -3.0760      2.00000
      9      -1.0656      2.00000
     10      -1.0656      2.00000
     11      -1.0656      2.00000
     12      -0.9819      2.00000
     13      -0.9819      2.00000
     14      -0.9819      2.00000
     15      -0.9819      2.00000
     16      -0.9819      2.00000
     17      -0.9819      2.00000
     18      -0.9733      2.00000
     19      -0.9733      2.00000
     20      -0.9733      2.00000
     21      -0.9434      2.00000
     22      -0.9434      2.00000
     23      -0.9434      2.00000
     24      -0.8492      2.00000
     25      -0.8492      2.00000
     26      -0.8492      2.00000
     27      -0.8492      2.00000
     28      -0.8492      2.00000
     29      -0.8492      2.00000
     30      -0.8208      2.00000
     31      -0.8208      2.00000
     32      -0.8208      2.00000
     33      -0.5327      2.00000
     34      -0.5327      2.00000
     35      -0.5327      2.00000
     36      -0.4418      2.00000
     37      -0.4418      2.00000
     38      -0.4418      2.00000
     39      -0.4418      2.00000
     40      -0.4418      2.00000
     41      -0.4418      2.00000
     42      -0.4380      2.00000
     43      -0.4380      2.00000
     44      -0.4380      2.00000
     45      -0.3498      2.00000
     46      -0.3498      2.00000
     47      -0.3498      2.00000
     48      -0.3350      2.00000
     49      -0.3350      2.00000
     50      -0.3350      2.00000
     51      -0.3350      2.00000
     52      -0.3350      2.00000
     53      -0.3350      2.00000
     54      -0.2278      2.00000
     55      -0.2278      2.00000
     56      -0.2278      2.00000
     57       0.0975      2.00000
     58       0.0975      2.00000
     59       0.0975      2.00000
     60       0.1046      2.00000
[...]
    202       9.3120      0.00000
    203       9.3120      0.00000
    204       9.3120      0.00000
    205       9.7527      0.00000
    206       9.7527      0.00000
    207       9.7527      0.00000
    208       9.7527      0.00000
    209       9.7527      0.00000
    210       9.7527      0.00000
    211      10.3855      0.00000
    212      10.3855      0.00000
    213      10.3855      0.00000
    214      10.8337      0.00000
    215      10.8337      0.00000
    216      10.8337      0.00000

 soft charge-density along one line, spin component           1
         0         1         2         3         4         5         6         7         8         9
 total charge-density along one line

------------------------ aborting loop because EDIFF is reached ----------------------------------------

  FREE ENERGIE OF THE ION-ELECTRON SYSTEM (eV)
  free  energy   TOTEN  =      -118.488796 eV

  energy  without entropy=     -118.487716  energy(sigma->0) =     -118.488256

  FORCE on cell =-STRESS in cart. coord.  units (eV/reduce length):
  Direction    X        Y        Z        XY       YZ       ZX
  Alpha Z   3204.74   3204.74   3204.74
  Ewald   -11486.68 -11486.68 -11486.68      0.00      0.00      0.00
  Hartree   3410.07   3410.07   3410.07     -0.00     -0.00     -0.00
  E(xc)    -2000.81  -2000.81  -2000.81      0.00     -0.00      0.00
  Local     3736.91   3736.91   3736.91      0.00     -0.00      0.00
  n-local  -1194.47  -1191.04  -1185.40      2.32     -0.43      1.09
  augment   1806.74   1806.74   1806.74     -0.00     -0.00     -0.00
  Kinetic   2497.97   2499.68   2506.36      0.74     -3.61     -0.32
  Total      -18.01    -18.01    -18.01      0.00      0.00      0.00
  in kB      -70.67    -70.67    -70.67      0.00      0.00      0.00

 VOLUME and BASIS-vectors are now :
  energy-cutoff  :      500.00
  volume of cell :      408.24
      direct lattice vectors                 reciprocal lattice vectors
     7.418288256  0.000000000  0.000000000     0.134801987  0.000000000  0.000000000
     0.000000000  7.418288256  0.000000000     0.000000000  0.134801987  0.000000000
     0.000000000  0.000000000  7.418288256     0.000000000  0.000000000  0.134801987

  length of vectors
     7.418288256  7.418288256  7.418288256     0.134801987  0.134801987  0.134801987

 FORCES acting on ions
    electron-ion (+dipol)            ewald-force                    non-local-force                 convergence-correction
   -.194E-12 -.167E-12 -.224E-12   -.107E-12 -.187E-13 0.391E-13   0.509E-25 -.727E-25 0.323E-26   0.719E-13 0.110E-13 -.151E-13
   0.998E-12 -.179E-12 0.414E-11   -.356E-13 -.266E-14 -.355E-14   0.244E-25 0.420E-25 -.375E-25   -.380E-13 0.418E-13 -.704E-13
   -.161E-12 0.954E-12 -.262E-12   -.119E-12 -.737E-13 -.391E-13   -.741E-25 -.194E-25 -.981E-25   0.454E-13 0.242E-13 -.417E-13
   0.965E-12 -.465E-11 0.305E-11   -.800E-13 -.258E-13 0.258E-13   -.646E-26 -.499E-25 -.162E-26   -.318E-13 -.517E-14 -.952E-13
   -.193E-12 -.167E-12 0.106E-11   -.107E-12 -.115E-13 0.178E-13   0.198E-25 0.493E-25 -.145E-25   0.817E-13 0.281E-14 -.684E-13
   0.993E-12 -.196E-12 -.506E-11   -.640E-13 -.311E-13 0.355E-14   0.323E-26 0.153E-25 0.202E-26   -.561E-13 0.343E-13 -.144E-12
   -.161E-12 0.949E-12 0.109E-11   -.148E-12 -.453E-13 0.320E-13   -.741E-25 0.307E-25 0.971E-25   0.537E-13 0.351E-13 -.172E-12
   0.965E-12 -.447E-11 -.464E-11   -.800E-13 -.258E-13 0.879E-13   0.735E-25 -.234E-25 -.382E-25   -.418E-13 0.207E-14 -.243E-12
   0.401E-12 -.241E-11 0.142E-11   0.471E-13 -.125E-13 -.107E-13   0.452E-25 -.273E-25 0.404E-25   -.229E-12 -.126E-12 -.636E-13
   0.158E-11 0.502E-12 -.728E-11   0.382E-13 -.214E-13 -.142E-13   -.452E-25 0.315E-25 -.162E-26   0.122E-12 -.116E-12 -.738E-14
   0.441E-12 0.437E-11 0.141E-11   0.595E-13 0.480E-13 -.888E-13   -.239E-25 0.351E-25 -.101E-24   -.271E-12 0.750E-13 -.668E-13
   0.155E-11 0.181E-10 -.604E-11   0.258E-13 0.715E-14 -.888E-13   0.732E-25 -.662E-25 0.404E-26   0.150E-12 0.612E-13 -.249E-13
   0.436E-12 0.323E-11 0.256E-11   0.471E-13 -.409E-13 -.462E-13   0.848E-25 0.808E-26 0.339E-25   -.280E-12 -.140E-12 -.169E-12
   0.155E-11 0.116E-10 -.247E-11   0.977E-14 0.355E-13 -.462E-13   -.310E-25 -.404E-26 0.418E-25   0.174E-12 -.121E-12 -.153E-12
   0.475E-12 -.121E-11 0.291E-11   0.311E-13 0.551E-13 0.320E-13   -.474E-25 0.495E-25 0.258E-25   -.315E-12 0.916E-13 -.114E-12
   0.152E-11 0.719E-11 -.349E-11   0.258E-13 0.356E-13 0.320E-13   -.540E-26 0.275E-25 0.494E-25   0.194E-12 0.718E-13 -.131E-12
   0.437E-12 -.165E-12 -.270E-11   -.977E-14 0.977E-14 -.761E-13   -.646E-26 0.170E-25 0.699E-25   -.283E-12 0.140E-14 -.233E-12
   0.155E-11 -.200E-12 -.103E-10   -.400E-13 -.506E-13 -.262E-13   0.156E-24 0.404E-26 0.194E-25   0.163E-12 0.491E-13 -.218E-12
   0.439E-12 0.814E-12 0.293E-11   -.382E-13 0.187E-13 0.165E-13   0.485E-26 0.517E-25 -.101E-25   -.275E-12 0.116E-13 -.291E-12
   0.156E-11 0.387E-11 0.104E-11   -.435E-13 0.790E-13 0.152E-14   0.128E-25 0.323E-26 0.137E-25   0.149E-12 -.450E-13 -.306E-12
   0.438E-12 -.169E-12 0.421E-11   -.258E-13 0.258E-13 0.105E-12   0.691E-25 0.162E-25 -.687E-25   -.289E-12 -.297E-13 0.975E-14
   0.155E-11 -.197E-12 0.127E-10   -.595E-13 -.879E-13 0.487E-13   -.961E-25 -.501E-25 0.162E-26   0.174E-12 0.232E-13 0.580E-13
   0.439E-12 0.121E-11 -.152E-11   -.542E-13 -.258E-13 0.606E-14   -.263E-26 -.404E-27 -.105E-25   -.284E-12 0.252E-13 -.276E-13
   0.155E-11 0.344E-11 0.208E-12   -.595E-13 0.311E-13 0.213E-13   -.123E-25 0.113E-25 -.154E-25   0.156E-12 -.223E-13 -.240E-13
   -.141E-12 0.414E-12 0.370E-12   0.706E-13 -.134E-13 -.125E-13   -.240E-25 -.969E-26 0.844E-25   0.369E-13 -.107E-12 -.228E-12
   0.948E-12 -.539E-11 -.110E-11   0.141E-12 0.104E-12 -.665E-13   -.646E-26 0.501E-25 -.113E-25   0.231E-14 -.110E-12 -.332E-12
   -.177E-12 0.156E-11 0.364E-12   0.626E-13 0.473E-13 -.487E-13   -.530E-25 0.800E-25 0.820E-25   0.732E-13 0.779E-13 -.200E-12
   0.983E-12 -.492E-11 -.532E-12   0.136E-12 -.129E-13 0.652E-13   0.112E-24 -.434E-26 0.691E-25   -.396E-13 0.733E-13 -.317E-12
   -.174E-12 0.448E-12 0.162E-11   0.752E-13 0.220E-13 -.104E-13   0.537E-25 0.137E-25 -.283E-25   0.638E-13 -.143E-12 -.864E-14
   0.982E-12 -.381E-11 -.159E-11   0.121E-12 0.222E-13 0.475E-13   0.924E-26 -.115E-24 0.727E-26   -.221E-13 -.150E-12 -.233E-13
   -.209E-12 0.153E-11 0.162E-11   0.388E-13 0.295E-13 0.262E-13   0.103E-25 -.291E-25 -.998E-25   0.103E-12 0.114E-12 0.143E-13
   0.101E-11 0.555E-11 0.991E-11   0.141E-12 0.297E-13 0.263E-13   -.824E-25 -.182E-25 0.137E-25   -.553E-13 0.116E-12 -.116E-13
   0.224E-10 0.375E-10 0.542E-11   0.198E-15 0.100E-12 0.568E-13   0.212E-24 0.468E-25 0.122E-24   -.697E-12 -.172E-12 -.372E-11

 POSITION                                       TOTAL-FORCE (eV/Angst)
      0.00000      0.00000      0.00000         0.000000      0.000000     -0.000000
      3.70914      0.00000      0.00000         0.000000     -0.000000     -0.000000
      0.00000      3.70914      0.00000        -0.000000     -0.000000     -0.000000
      3.70914      3.70914      0.00000        -0.000000     -0.000000     -0.000000
      0.00000      0.00000      3.70914         0.000000     -0.000000      0.000000
      3.70914      0.00000      3.70914        -0.000000      0.000000     -0.000000
      0.00000      3.70914      3.70914        -0.000000     -0.000000     -0.000000
      3.70914      3.70914      3.70914        -0.000000      0.000000      0.000000
      1.85457      1.85457      0.00000        -0.000000      0.000000     -0.000000
      5.56372      1.85457      0.00000         0.000000      0.000000     -0.000000
      1.85457      5.56372      0.00000         0.000000      0.000000     -0.000000
      5.56372      5.56372      0.00000         0.000000      0.000000      0.000000
      1.85457      1.85457      3.70914         0.000000     -0.000000      0.000000
      5.56372      1.85457      3.70914        -0.000000      0.000000      0.000000
      1.85457      5.56372      3.70914        -0.000000      0.000000     -0.000000
      5.56372      5.56372      3.70914         0.000000     -0.000000      0.000000
      1.85457      0.00000      1.85457        -0.000000     -0.000000     -0.000000
      5.56372      0.00000      1.85457        -0.000000      0.000000     -0.000000
      1.85457      3.70914      1.85457        -0.000000     -0.000000      0.000000
      5.56372      3.70914      1.85457        -0.000000      0.000000      0.000000
      1.85457      0.00000      5.56372         0.000000     -0.000000      0.000000
      5.56372      0.00000      5.56372         0.000000      0.000000     -0.000000
      1.85457      3.70914      5.56372         0.000000      0.000000     -0.000000
      5.56372      3.70914      5.56372        -0.000000     -0.000000     -0.000000
      0.00000      1.85457      1.85457         0.000000      0.000000      0.000000
      3.70914      1.85457      1.85457        -0.000000      0.000000     -0.000000
      0.00000      5.56372      1.85457        -0.000000     -0.000000      0.000000
      3.70914      5.56372      1.85457         0.000000     -0.000000      0.000000
      0.00000      1.85457      5.56372        -0.000000     -0.000000     -0.000000
      3.70914      1.85457      5.56372        -0.000000      0.000000     -0.000000
      0.00000      5.56372      5.56372         0.000000     -0.000000      0.000000
      3.70914      5.56372      5.56372        -0.000000     -0.000000     -0.000000
    total drift:                                0.000000      0.000000      0.000000

 mean value of Nose-termostat <S>:     1.000 mean value of <T> :     0.000
 mean temperature <T/S>/<1/S>  :     0.000