 vasp.4.6.28 25Jul05 complex
 executed on             LinuxIFC date 2017.01.11  18:22:34

 INCAR:
 POTCAR:   PAW_PBE Cu 05Jan2001
 POTCAR:   PAW_PBE Cu 05Jan2001
   VRHFIN =Cu: d10 p1

   TITEL  = PAW_PBE Cu 05Jan2001
   POMASS =   63.546; ZVAL   =   11.000    mass and valenz
   ENMAX  =  273.214; ENMIN  =  204.910 eV
   QCUT   =   -4.481; QGAM   =    8.962    optimization parameters

   Description
     l     E      TYP  RCUT    TYP  RCUT
     2   .000     23  2.300
     2   .000     23  2.300
     0   .000     23  2.300
     0   .000     23  2.300
     1  -.200     23  2.300
     1   .000     23  2.300
     3   .000      7   .000

 PAW_PBE Cu 05Jan2001                   :

 POSCAR: Cu
  positions in direct lattice
  velocities in cartesian coordinates

 ion  position               nearest neighbor table
   1  0.000  0.000  0.000-   2 2.47   3 2.47   4 2.47   3 2.47   4 2.47   2 2.47   4 2.47   4 2.47
                             2 2.47   3 2.47   3 2.47   2 2.47
   2  0.500  0.500  0.000-   1 2.47   3 2.47   4 2.47   3 2.47   4 2.47   1 2.47   3 2.47   3 2.47
                             1 2.47   4 2.47   4 2.47   1 2.47
   3  0.500  0.000  0.500-   1 2.47   2 2.47   4 2.47   1 2.47   2 2.47   2 2.47   4 2.47   2 2.47
                             1 2.47   4 2.47   1 2.47   4 2.47
   4  0.000  0.500  0.500-   1 2.47   2 2.47   3 2.47   1 2.47   2 2.47   1 2.47   3 2.47   1 2.47
                             2 2.47   3 2.47   2 2.47   3 2.47

  LATTYP: Found a simple cubic cell.
 ALAT       =     3.4913512562

  Lattice vectors:

 A1 = (   3.4913512562,   0.0000000000,   0.0000000000)
 A2 = (   0.0000000000,   3.4913512562,   0.0000000000)
 A3 = (   0.0000000000,   0.0000000000,   3.4913512562)
 Subroutine PRICEL returns following result:

  LATTYP: Found a face centered cubic cell.
 ALAT       =     3.4913512562

  Lattice vectors:

 A1 = (   1.7456756281,   1.7456756281,   0.0000000000)
 A2 = (   1.7456756281,   0.0000000000,  -1.7456756281)
 A3 = (   0.0000000000,   1.7456756281,  -1.7456756281)

   4 primitive cells build up your supercell.

Analysis of symmetry for initial positions (statically):

 Routine SETGRP: Setting up the symmetry group for a
 simple cubic supercell.

 Subroutine GETGRP returns: Found 48 space group operations
 (whereof 48 operations were pure point group operations)
 out of a pool of 48 trial point group operations.

The static configuration has the point symmetry O_h .

Analysis of symmetry for dynamics (positions and initial velocities):

 Subroutine DYNSYM returns: Found 48 space group operations
 (whereof 48 operations were pure point group operations)
 out of a pool of 48 trial space group operations
 (whereof 48 operations were pure point group operations)
 and found also     4 'primitive' translations

The dynamic configuration has the point symmetry O_h .

 KPOINTS: Automatic mesh

Automatic generation of k-mesh.

 Subroutine IBZKPT returns following result:

 Found    455 irreducible k-points:

 Following reciprocal coordinates:
            Coordinates               Weight
  0.000000  0.000000  0.000000      1.000000
  0.041667  0.000000  0.000000      6.000000
  0.083333  0.000000  0.000000      6.000000
  0.125000  0.000000  0.000000      6.000000
  0.166667  0.000000  0.000000      6.000000
  0.208333  0.000000  0.000000      6.000000
  0.250000  0.000000  0.000000      6.000000
  0.291667  0.000000  0.000000      6.000000
  0.333333  0.000000  0.000000      6.000000
  0.375000  0.000000  0.000000      6.000000
  0.416667  0.000000  0.000000      6.000000
  0.458333  0.000000  0.000000      6.000000
  0.500000  0.000000  0.000000      3.000000
  0.041667  0.041667  0.000000     12.000000
  0.083333  0.041667  0.000000     24.000000
  0.125000  0.041667  0.000000     24.000000
  0.166667  0.041667  0.000000     24.000000
  0.208333  0.041667  0.000000     24.000000
  0.250000  0.041667  0.000000     24.000000
  0.291667  0.041667  0.000000     24.000000
  0.333333  0.041667  0.000000     24.000000
  0.375000  0.041667  0.000000     24.000000
  0.416667  0.041667  0.000000     24.000000
  0.458333  0.041667  0.000000     24.000000
  0.500000  0.041667  0.000000     12.000000
  0.083333  0.083333  0.000000     12.000000
  0.125000  0.083333  0.000000     24.000000
  0.166667  0.083333  0.000000     24.000000
  0.208333  0.083333  0.000000     24.000000
  0.250000  0.083333  0.000000     24.000000
  0.291667  0.083333  0.000000     24.000000
  0.333333  0.083333  0.000000     24.000000
  0.375000  0.083333  0.000000     24.000000
  0.416667  0.083333  0.000000     24.000000
  0.458333  0.083333  0.000000     24.000000
  0.500000  0.083333  0.000000     12.000000
  0.125000  0.125000  0.000000     12.000000
  0.166667  0.125000  0.000000     24.000000
  0.208333  0.125000  0.000000     24.000000
  0.250000  0.125000  0.000000     24.000000
  0.291667  0.125000  0.000000     24.000000
  0.333333  0.125000  0.000000     24.000000
  0.375000  0.125000  0.000000     24.000000
  0.416667  0.125000  0.000000     24.000000
  0.458333  0.125000  0.000000     24.000000
  0.500000  0.125000  0.000000     12.000000
  0.166667  0.166667  0.000000     12.000000
  0.208333  0.166667  0.000000     24.000000
  0.250000  0.166667  0.000000     24.000000
  0.291667  0.166667  0.000000     24.000000
  0.333333  0.166667  0.000000     24.000000
  0.375000  0.166667  0.000000     24.000000
  0.416667  0.166667  0.000000     24.000000
  0.458333  0.166667  0.000000     24.000000
  0.500000  0.166667  0.000000     12.000000
  0.208333  0.208333  0.000000     12.000000
  0.250000  0.208333  0.000000     24.000000
  0.291667  0.208333  0.000000     24.000000
  0.333333  0.208333  0.000000     24.000000
  0.375000  0.208333  0.000000     24.000000
[...]
  0.458333  0.416667  0.375000     48.000000
  0.500000  0.416667  0.375000     24.000000
  0.458333  0.458333  0.375000     24.000000
  0.500000  0.458333  0.375000     24.000000
  0.500000  0.500000  0.375000      6.000000
  0.416667  0.416667  0.416667      8.000000
  0.458333  0.416667  0.416667     24.000000
  0.500000  0.416667  0.416667     12.000000
  0.458333  0.458333  0.416667     24.000000
  0.500000  0.458333  0.416667     24.000000
  0.500000  0.500000  0.416667      6.000000
  0.458333  0.458333  0.458333      8.000000
  0.500000  0.458333  0.458333     12.000000
  0.500000  0.500000  0.458333      6.000000
  0.500000  0.500000  0.500000      1.000000

 Following cartesian coordinates:
            Coordinates               Weight
  0.000000  0.000000  0.000000      1.000000
  0.011457  0.000000  0.000000      6.000000
  0.022914  0.000000  0.000000      6.000000
  0.034371  0.000000  0.000000      6.000000
  0.045828  0.000000  0.000000      6.000000
  0.057284  0.000000  0.000000      6.000000
  0.068741  0.000000  0.000000      6.000000
  0.080198  0.000000  0.000000      6.000000
  0.091655  0.000000  0.000000      6.000000
  0.103112  0.000000  0.000000      6.000000
  0.114569  0.000000  0.000000      6.000000
  0.126026  0.000000  0.000000      6.000000
  0.137483  0.000000  0.000000      3.000000
  0.011457  0.011457  0.000000     12.000000
  0.022914  0.011457  0.000000     24.000000
  0.034371  0.011457  0.000000     24.000000
  0.045828  0.011457  0.000000     24.000000
  0.057284  0.011457  0.000000     24.000000
  0.068741  0.011457  0.000000     24.000000
  0.080198  0.011457  0.000000     24.000000
  0.091655  0.011457  0.000000     24.000000
  0.103112  0.011457  0.000000     24.000000
  0.114569  0.011457  0.000000     24.000000
  0.126026  0.011457  0.000000     24.000000
  0.137483  0.011457  0.000000     12.000000
  0.022914  0.022914  0.000000     12.000000
  0.034371  0.022914  0.000000     24.000000
  0.045828  0.022914  0.000000     24.000000
  0.057284  0.022914  0.000000     24.000000
  0.068741  0.022914  0.000000     24.000000
  0.080198  0.022914  0.000000     24.000000
  0.091655  0.022914  0.000000     24.000000
  0.103112  0.022914  0.000000     24.000000
  0.114569  0.022914  0.000000     24.000000
  0.126026  0.022914  0.000000     24.000000
  0.137483  0.022914  0.000000     12.000000
  0.034371  0.034371  0.000000     12.000000
  0.045828  0.034371  0.000000     24.000000
  0.057284  0.034371  0.000000     24.000000
  0.068741  0.034371  0.000000     24.000000
  0.080198  0.034371  0.000000     24.000000
  0.091655  0.034371  0.000000     24.000000
  0.103112  0.034371  0.000000     24.000000
  0.114569  0.034371  0.000000     24.000000
  0.126026  0.034371  0.000000     24.000000
  0.137483  0.034371  0.000000     12.000000
  0.045828  0.045828  0.000000     12.000000
  0.057284  0.045828  0.000000     24.000000
  0.068741  0.045828  0.000000     24.000000
  0.080198  0.045828  0.000000     24.000000
  0.091655  0.045828  0.000000     24.000000
  0.103112  0.045828  0.000000     24.000000
  0.114569  0.045828  0.000000     24.000000
  0.126026  0.045828  0.000000     24.000000
  0.137483  0.045828  0.000000     12.000000
  0.057284  0.057284  0.000000     12.000000
  0.068741  0.057284  0.000000     24.000000
  0.080198  0.057284  0.000000     24.000000
  0.091655  0.057284  0.000000     24.000000
  0.103112  0.057284  0.000000     24.000000
[...]
  0.126026  0.114569  0.103112     48.000000
  0.137483  0.114569  0.103112     24.000000
  0.126026  0.126026  0.103112     24.000000
  0.137483  0.126026  0.103112     24.000000
  0.137483  0.137483  0.103112      6.000000
  0.114569  0.114569  0.114569      8.000000
  0.126026  0.114569  0.114569     24.000000
  0.137483  0.114569  0.114569     12.000000
  0.126026  0.126026  0.114569     24.000000
  0.137483  0.126026  0.114569     24.000000
  0.137483  0.137483  0.114569      6.000000
  0.126026  0.126026  0.126026      8.000000
  0.137483  0.126026  0.126026     12.000000
  0.137483  0.137483  0.126026      6.000000
  0.137483  0.137483  0.137483      1.000000

 I would recommend the setting:
   dimension x,y,z NGX =    32 NGY =   32 NGZ =   32
 SYSTEM =  unknown system
 POSCAR =  Cu

 Startparameter for this run:
   NWRITE =      2    write-flag & timer
   PREC   = accura    medium, high low
   ISTART =      0    job   : 0-new  1-cont  2-samecut
   ICHARG =      2    charge: 1-file 2-atom 10-const
   ISPIN  =      1    spin polarized calculation?
   LNONCOLLINEAR =      F non collinear calculations
   LSORBIT =      F    spin-orbit coupling
   INIWAV =      1    electr: 0-lowe 1-rand  2-diag
   LASPH  =      F    aspherical Exc in radial PAW
   METAGGA=      F    non-selfconsistent MetaGGA calc.

 Electronic Relaxation 1
   ENCUT  =  800.0 eV  58.80 Ry    7.67 a.u.   8.05  8.05  8.05*2*pi/ulx,y,z
   ENINI  =  800.0     initial cutoff
   ENAUG  =  516.5 eV  augmentation charge cutoff
   NELM   =     60;   NELMIN=  2; NELMDL= -5     # of ELM steps
   EDIFF  = 0.1E-07   stopping-criterion for ELM
   LREAL  =      F    real-space projection
   LCOMPAT=      F    compatible to vasp.4.4
   LREAL_COMPAT= F    compatible to vasp.4.5.1-3
   GGA_COMPAT  = T    GGA compatible to vasp.4.4-vasp.4.6
   LMAXPAW     = -100 max onsite density
   LMAXMIX     =    2 max onsite mixed and CHGCAR
[...]
 k-point 23 :  0.41670.04170.0000  plane waves:   2172
 k-point 24 :  0.45830.04170.0000  plane waves:   2173
 k-point 25 :  0.50000.04170.0000  plane waves:   2178
 k-point 26 :  0.08330.08330.0000  plane waves:   2165
 k-point 27 :  0.12500.08330.0000  plane waves:   2176
 k-point 28 :  0.16670.08330.0000  plane waves:   2174
 k-point 29 :  0.20830.08330.0000  plane waves:   2182
 k-point 30 :  0.25000.08330.0000  plane waves:   2178
 k-point 31 :  0.29170.08330.0000  plane waves:   2183
 k-point 32 :  0.33330.08330.0000  plane waves:   2193
 k-point 33 :  0.37500.08330.0000  plane waves:   2185
 k-point 34 :  0.41670.08330.0000  plane waves:   2178
 k-point 35 :  0.45830.08330.0000  plane waves:   2177
 k-point 36 :  0.50000.08330.0000  plane waves:   2176
 k-point 37 :  0.12500.12500.0000  plane waves:   2189
 k-point 38 :  0.16670.12500.0000  plane waves:   2181
 k-point 39 :  0.20830.12500.0000  plane waves:   2187
 k-point 40 :  0.25000.12500.0000  plane waves:   2197
 k-point 41 :  0.29170.12500.0000  plane waves:   2185
 k-point 42 :  0.33330.12500.0000  plane waves:   2184
 k-point 43 :  0.37500.12500.0000  plane waves:   2176
 k-point 44 :  0.41670.12500.0000  plane waves:   2179
 k-point 45 :  0.45830.12500.0000  plane waves:   2172
 k-point 46 :  0.50000.12500.0000  plane waves:   2176
 k-point 47 :  0.16670.16670.0000  plane waves:   2183
 k-point 48 :  0.20830.16670.0000  plane waves:   2185
 k-point 49 :  0.25000.16670.0000  plane waves:   2190
 k-point 50 :  0.29170.16670.0000  plane waves:   2189
 k-point 51 :  0.33330.16670.0000  plane waves:   2194
 k-point 52 :  0.37500.16670.0000  plane waves:   2182
 k-point 53 :  0.41670.16670.0000  plane waves:   2173
 k-point 54 :  0.45830.16670.0000  plane waves:   2177
 k-point 55 :  0.50000.16670.0000  plane waves:   2168
 k-point 56 :  0.20830.20830.0000  plane waves:   2181
 k-point 57 :  0.25000.20830.0000  plane waves:   2189
 k-point 58 :  0.29170.20830.0000  plane waves:   2192
 k-point 59 :  0.33330.20830.0000  plane waves:   2185
 k-point 60 :  0.37500.20830.0000  plane waves:   2181
[...]
 k-point 85 :  0.50000.37500.0000  plane waves:   2180
 k-point 86 :  0.41670.41670.0000  plane waves:   2184
 k-point 87 :  0.45830.41670.0000  plane waves:   2184
 k-point 88 :  0.50000.41670.0000  plane waves:   2188
 k-point 89 :  0.45830.45830.0000  plane waves:   2184
 k-point 90 :  0.50000.45830.0000  plane waves:   2184
 k-point 91 :  0.50000.50000.0000  plane waves:   2192
 k-point 92 :  0.04170.04170.0417  plane waves:   2151
 k-point 93 :  0.08330.04170.0417  plane waves:   2164
 k-point 94 :  0.12500.04170.0417  plane waves:   2178
 k-point 95 :  0.16670.04170.0417  plane waves:   2186
 k-point 96 :  0.20830.04170.0417  plane waves:   2179
 k-point 97 :  0.25000.04170.0417  plane waves:   2184
 k-point 98 :  0.29170.04170.0417  plane waves:   2185
 k-point 99 :  0.33330.04170.0417  plane waves:   2184
 k-point ** :  0.37500.04170.0417  plane waves:   2182
 k-point ** :  0.41670.04170.0417  plane waves:   2174
 k-point ** :  0.45830.04170.0417  plane waves:   2175
 k-point ** :  0.50000.04170.0417  plane waves:   2172
 k-point ** :  0.08330.08330.0417  plane waves:   2169
 k-point ** :  0.12500.08330.0417  plane waves:   2176
 k-point ** :  0.16670.08330.0417  plane waves:   2179
 k-point ** :  0.20830.08330.0417  plane waves:   2184
 k-point ** :  0.25000.08330.0417  plane waves:   2186
 k-point ** :  0.29170.08330.0417  plane waves:   2184
 k-point ** :  0.33330.08330.0417  plane waves:   2184
 k-point ** :  0.37500.08330.0417  plane waves:   2185
 k-point ** :  0.41670.08330.0417  plane waves:   2175
 k-point ** :  0.45830.08330.0417  plane waves:   2177
 k-point ** :  0.50000.08330.0417  plane waves:   2174
 k-point ** :  0.12500.12500.0417  plane waves:   2183
 k-point ** :  0.16670.12500.0417  plane waves:   2183
 k-point ** :  0.20830.12500.0417  plane waves:   2183
 k-point ** :  0.25000.12500.0417  plane waves:   2187
 k-point ** :  0.29170.12500.0417  plane waves:   2185
 k-point ** :  0.33330.12500.0417  plane waves:   2186
 k-point ** :  0.37500.12500.0417  plane waves:   2186
 k-point ** :  0.41670.12500.0417  plane waves:   2178
 k-point ** :  0.45830.12500.0417  plane waves:   2172
 k-point ** :  0.50000.12500.0417  plane waves:   2170
 k-point ** :  0.16670.16670.0417  plane waves:   2183
 k-point ** :  0.20830.16670.0417  plane waves:   2182
 k-point ** :  0.25000.16670.0417  plane waves:   2184
 k-point ** :  0.29170.16670.0417  plane waves:   2181
 k-point ** :  0.33330.16670.0417  plane waves:   2189
 k-point ** :  0.37500.16670.0417  plane waves:   2179
 k-point ** :  0.41670.16670.0417  plane waves:   2180
 k-point ** :  0.45830.16670.0417  plane waves:   2178
 k-point ** :  0.50000.16670.0417  plane waves:   2174
 k-point ** :  0.20830.20830.0417  plane waves:   2180
 k-point ** :  0.25000.20830.0417  plane waves:   2181
 k-point ** :  0.29170.20830.0417  plane waves:   2188
 k-point ** :  0.33330.20830.0417  plane waves:   2187
 k-point ** :  0.37500.20830.0417  plane waves:   2185
 k-point ** :  0.41670.20830.0417  plane waves:   2183
 k-point ** :  0.45830.20830.0417  plane waves:   2179
 k-point ** :  0.50000.20830.0417  plane waves:   2174
 k-point ** :  0.25000.25000.0417  plane waves:   2188
 k-point ** :  0.29170.25000.0417  plane waves:   2190
 k-point ** :  0.33330.25000.0417  plane waves:   2186
 k-point ** :  0.37500.25000.0417  plane waves:   2184
 k-point ** :  0.41670.25000.0417  plane waves:   2185
 k-point ** :  0.45830.25000.0417  plane waves:   2181
 k-point ** :  0.50000.25000.0417  plane waves:   2184
 k-point ** :  0.29170.29170.0417  plane waves:   2184
 k-point ** :  0.33330.29170.0417  plane waves:   2182
 k-point ** :  0.37500.29170.0417  plane waves:   2180
 k-point ** :  0.41670.29170.0417  plane waves:   2181
 k-point ** :  0.45830.29170.0417  plane waves:   2182
 k-point ** :  0.50000.29170.0417  plane waves:   2180
 k-point ** :  0.33330.33330.0417  plane waves:   2184
 k-point ** :  0.37500.33330.0417  plane waves:   2177
 k-point ** :  0.41670.33330.0417  plane waves:   2178
 k-point ** :  0.45830.33330.0417  plane waves:   2177
 k-point ** :  0.50000.33330.0417  plane waves:   2174
[...]
 k-point ** :  0.45830.41670.3750  plane waves:   2214
 k-point ** :  0.50000.41670.3750  plane waves:   2224
 k-point ** :  0.45830.45830.3750  plane waves:   2227
 k-point ** :  0.50000.45830.3750  plane waves:   2226
 k-point ** :  0.50000.50000.3750  plane waves:   2224
 k-point ** :  0.41670.41670.4167  plane waves:   2221
 k-point ** :  0.45830.41670.4167  plane waves:   2231
 k-point ** :  0.50000.41670.4167  plane waves:   2224
 k-point ** :  0.45830.45830.4167  plane waves:   2224
 k-point ** :  0.50000.45830.4167  plane waves:   2226
 k-point ** :  0.50000.50000.4167  plane waves:   2224
 k-point ** :  0.45830.45830.4583  plane waves:   2230
 k-point ** :  0.50000.45830.4583  plane waves:   2224
 k-point ** :  0.50000.50000.4583  plane waves:   2224
 k-point ** :  0.50000.50000.5000  plane waves:   2272

 maximum and minimum number of plane-waves per node :   2272  2109

 maximum number of plane-waves:   2272
 maximal index in each direction:
   IXMAX=  8   IYMAX=  8   IZMAX=  8
   IXMIN= -8   IYMIN= -8   IZMIN= -8

 WARNING: wrap around error must be expected set NGX to  34
 WARNING: wrap around error must be expected set NGY to  34
 WARNING: wrap around error must be expected set NGZ to  34

 parallel 3dFFT wavefunction:
    minimum data exchange during FFTs selected (reduces bandwidth)
 parallel 3dFFT charge:
    minimum data exchange during FFTs selected (reduces bandwidth)

Broyden mixing: mesh for mixing (old mesh)
   NGX = 17   NGY = 17   NGZ = 17
  (NGX  = 64   NGY  = 64   NGZ  = 64)
 gives a total of   4913 points
 initial charge density was supplied:
 charge density of overlapping atoms calculated
 number of electron   44.0000000 magnetization
 keeping initial charge density in first step

 Maximum index for augmentation-charges        26265 (set IRDMAX)

 First call to EWALD:  gamma=   0.508
 Maximum number of real-space cells 3x 3x 3
 Maximum number of reciprocal cells 3x 3x 3

----------------------------------------- Iteration    1(   1)  ---------------------------------------

 eigenvalue-minimisations  : 30728
 total energy-change (2. order) : 0.3329376E+03  (-0.2733725E+04)
 number of electron   44.0000000 magnetization
 augmentation part    44.0000000 magnetization

 Free energy of the ion-electron system (eV)
  alpha Z        PSCENC =       480.33337222
  Ewald energy   TEWEN  =     -4576.19133881
  -1/2 Hartree   DENC   =     -1224.35272684
  -V(xc)+E(xc)   XCENC  =       176.85679759
  PAW double counting   =      4328.20916945    -4904.30802700
  entropy T*S    EENTRO =        -0.00008824
  eigenvalues    EBANDS =       488.47287364
  atomic energy  EATOM  =      5563.91759264
  free energy    TOTEN  =       332.93762464 eV

  energy without entropy =      332.93771288  energy(sigma->0) =      332.93766876

[...]

 eigenvalue-minimisations  : 29184
 total energy-change (2. order) :-0.3252923E+03  (-0.3071978E+03)
 number of electron   44.0000000 magnetization
 augmentation part    44.0000000 magnetization

[...]

 Broyden mixing:
  rms(total) = 0.14137E+01    rms(broyden)= 0.14137E+01
  rms(prec ) = 0.34244E+01
  weight for this iteration     100.00

[...]

 eigenvalues of (default mixing * dielectric matrix)
  average eigenvalue GAMMA=   0.7428
  0.7428

[...]

 eigenvalue-minimisations  : 18976
 total energy-change (2. order) :-0.2542583E-07  (-0.2160415E-09)
 number of electron   44.0000001 magnetization
 augmentation part    28.6522741 magnetization

 Broyden mixing:
  rms(total) = 0.39536E-05    rms(broyden)= 0.39536E-05
  rms(prec ) = 0.10009E-04
  weight for this iteration     100.00

 eigenvalues of (default mixing * dielectric matrix)
  average eigenvalue GAMMA=   1.6895
  2.6628  2.6628  2.5755  2.5755  0.6981  0.9794  0.9794  1.0358  1.0358

[...]

----------------------------------------- Iteration    1(  15)  ---------------------------------------

 eigenvalue-minimisations  : 17832
 total energy-change (2. order) : 0.8944880E-08  (-0.2310494E-10)
 number of electron   44.0000001 magnetization
 augmentation part    28.6522741 magnetization

 Free energy of the ion-electron system (eV)
  alpha Z        PSCENC =       480.33337222
  Ewald energy   TEWEN  =     -4576.19133881
  -1/2 Hartree   DENC   =     -1132.88580432
  -V(xc)+E(xc)   XCENC  =       172.24089346
  PAW double counting   =      4467.43845994    -5048.96444630
  entropy T*S    EENTRO =        -0.00011843
  eigenvalues    EBANDS =        59.58838878
  atomic energy  EATOM  =      5563.91759264
  free energy    TOTEN  =       -14.52300083 eV

  energy without entropy =      -14.52288240  energy(sigma->0) =      -14.52294162

 average (electrostatic) potential at core
  the test charge radii are     1.0053
  (the norm of the test charge is              1.0000)
       1 -39.2396       2 -39.2396       3 -39.2396       4 -39.2396

 E-fermi :   4.7849     XC(G=0): -13.4248     alpha+bet :-10.6906
   add alpha+bet to get absolut eigen values

 k-point   1 :       0.0000    0.0000    0.0000
  band No.  band energies     occupation
      1      -5.4326      2.00000
      2      -0.8142      2.00000
      3      -0.8142      2.00000
      4      -0.8142      2.00000
      5      -0.2902      2.00000
      6      -0.2902      2.00000
      7      -0.2902      2.00000
      8       1.3459      2.00000
      9       1.3459      2.00000
     10       1.3459      2.00000
     11       2.3195      2.00000
     12       2.3195      2.00000
     13       2.9648      2.00000
     14       2.9648      2.00000
     15       2.9648      2.00000
     16       3.1463      2.00000
     17       3.1463      2.00000
     18       3.1463      2.00000
     19       3.1463      2.00000
     20       3.1463      2.00000
     21       3.1463      2.00000
     22       6.1810      0.00000
     23       6.1810      0.00000
     24       6.1810      0.00000
     25      12.6250      0.00000
     26      12.6250      0.00000
     27      12.6250      0.00000
     28      18.7809      0.00000
     29      18.7809      0.00000
     30      18.7809      0.00000
     31      18.7809      0.00000
     32      18.7809      0.00000

[...]

 k-point 455 :       0.5000    0.5000    0.5000
  band No.  band energies     occupation
      1      -0.9770      2.00000
      2      -0.9770      2.00000
      3      -0.9770      2.00000
      4      -0.9770      2.00000
      5       1.3072      2.00000
      6       1.3072      2.00000
      7       1.3072      2.00000
      8       1.3072      2.00000
      9       1.3072      2.00000
     10       1.3072      2.00000
     11       1.3072      2.00000
     12       1.3072      2.00000
     13       2.9812      2.00000
     14       2.9812      2.00000
     15       2.9812      2.00000
     16       2.9812      2.00000
     17       2.9812      2.00000
     18       2.9812      2.00000
     19       2.9812      2.00000
     20       2.9812      2.00000
     21       3.4308      2.00000
     22       3.4308      2.00000
     23       3.4308      2.00000
     24       3.4308      2.00000
     25       9.0515      0.00000
     26       9.0515      0.00000
     27       9.0515      0.00000
     28       9.0515      0.00000
     29      27.0983      0.00000
     30      27.0983      0.00000
     31      27.0983      0.00000
     32      27.0983      0.00000

 soft charge-density along one line, spin component           1
         0         1         2         3         4         5         6         7         8         9
 total charge-density along one line

------------------------ aborting loop because EDIFF is reached ----------------------------------------

  FREE ENERGIE OF THE ION-ELECTRON SYSTEM (eV)
  free  energy   TOTEN  =       -14.523001 eV

  energy  without entropy=      -14.522882  energy(sigma->0) =      -14.522942

  FORCE on cell =-STRESS in cart. coord.  units (eV/reduce length):
  Direction    X        Y        Z        XY       YZ       ZX
  Alpha Z    480.33    480.33    480.33
  Ewald    -1525.40  -1525.40  -1525.40      0.00      0.00      0.00
  Hartree    377.63    377.63    377.63      0.00     -0.00     -0.00
  E(xc)     -251.67   -251.67   -251.67     -0.00      0.00     -0.00
  Local      521.51    521.51    521.51      0.00      0.00     -0.00
  n-local   -136.34   -142.65   -144.02      0.40      1.82      0.63
  augment    226.39    226.39    226.39     -0.00     -0.00     -0.00
  Kinetic    326.41    317.33    311.11     -3.29     -0.30     -1.60
  Total        6.07      6.07      6.07      0.00      0.00     -0.00
  in kB      228.69    228.69    228.69      0.00      0.00     -0.00

 VOLUME and BASIS-vectors are now :
  energy-cutoff  :      800.00
  volume of cell :       42.56
      direct lattice vectors                 reciprocal lattice vectors
     3.491351256  0.000000000  0.000000000     0.286422055  0.000000000  0.000000000
     0.000000000  3.491351256  0.000000000     0.000000000  0.286422055  0.000000000
     0.000000000  0.000000000  3.491351256     0.000000000  0.000000000  0.286422055

  length of vectors
     3.491351256  3.491351256  3.491351256     0.286422055  0.286422055  0.286422055

 FORCES acting on ions
    electron-ion (+dipol)            ewald-force                    non-local-force                 convergence-correction
   0.167E-13 0.431E-14 -.235E-13   -.214E-13 -.776E-14 -.193E-13   0.129E-25 -.775E-25 -.775E-25   0.871E-13 0.279E-13 -.308E-13
   0.199E-12 -.279E-11 -.360E-11   0.334E-13 -.465E-14 -.193E-13   -.142E-24 -.258E-25 0.646E-26   0.484E-13 0.378E-13 -.534E-13
   0.199E-12 0.529E-14 -.455E-11   -.215E-13 0.481E-14 0.181E-13   0.111E-24 0.775E-25 0.000E+00   0.413E-13 0.371E-13 -.577E-13
   0.169E-13 0.186E-12 0.164E-12   0.917E-14 0.791E-14 0.181E-13   -.452E-25 0.258E-25 0.113E-25   0.907E-13 0.187E-13 -.351E-13
   0.431E-12 -.259E-11 -.801E-11   -.384E-15 0.308E-15 -.233E-14   -.630E-25 0.000E+00 -.598E-25   0.267E-12 0.122E-12 -.177E-12

 POSITION                                       TOTAL-FORCE (eV/Angst)
      0.00000      0.00000      0.00000         0.000000     -0.000000      0.000000
      1.74568      1.74568      0.00000         0.000000     -0.000000      0.000000
      1.74568      0.00000      1.74568         0.000000     -0.000000      0.000000
      0.00000      1.74568      1.74568         0.000000     -0.000000      0.000000
    total drift:                                0.000000     -0.000000     -0.000000

 mean value of Nose-termostat <S>:     1.000 mean value of <T> :     0.000
 mean temperature <T/S>/<1/S>  :     0.000