 vasp.4.6.28 25Jul05 complex
 executed on             LinuxIFC date 2016.08.29  18:34:41

 INCAR:
 POTCAR:   PAW_PBE Cu 05Jan2001
 POTCAR:   PAW_PBE Cu 05Jan2001
   VRHFIN =Cu: d10 p1

   TITEL  = PAW_PBE Cu 05Jan2001
   POMASS =   63.546; ZVAL   =   11.000    mass and valenz
   ENMAX  =  273.214; ENMIN  =  204.910 eV
   QCUT   =   -4.481; QGAM   =    8.962    optimization parameters

   Description
     l     E      TYP  RCUT    TYP  RCUT
     2   .000     23  2.300
     2   .000     23  2.300
     0   .000     23  2.300
     0   .000     23  2.300
     1  -.200     23  2.300
     1   .000     23  2.300
     3   .000      7   .000

 PAW_PBE Cu 05Jan2001                   :

 POSCAR: No title
  positions in direct lattice

 ion  position               nearest neighbor table
   1  0.667  0.667  0.333-   5 2.57   8 2.57   9 2.57  43 2.57  60 2.57  59 2.57   3 2.57  38 2.57
                             2 2.57  19 2.57  34 2.57 101 2.57
   2  0.667  0.833  0.500-   3 2.57  14 2.57   9 2.57  10 2.57  34 2.57  39 2.57   1 2.57   6 2.57
                            61 2.57  97 2.57  60 2.57  35 2.57
   3  0.833  0.667  0.500-   2 2.57   9 2.57  14 2.57  12 2.57   1 2.57  19 2.57  39 2.57  11 2.57
                            49 2.57  87 2.57  44 2.57  43 2.57
   4  0.667  0.667  0.000-  21 2.57  15 2.57  66 2.57  83 2.57  20 2.57   8 2.57   5 2.57  38 2.57
                            59 2.57 107 2.57  82 2.57  63 2.57
   5  0.667  0.833  0.167-   1 2.57   8 2.57   9 2.57  21 2.57  60 2.57  59 2.57  22 2.57   4 2.57
                             6 2.57  16 2.57  84 2.57  83 2.57
   6  0.667  0.000  0.333-  22 2.57  17 2.57   9 2.57  10 2.57  23 2.57  84 2.57   5 2.57  61 2.57
                             2 2.57  85 2.57  60 2.57   7 2.57
   7  0.667  0.167  0.500-  24 2.57  18 2.57  10 2.57  86 2.57  23 2.57  64 2.57  62 2.57  35 2.57
                           105 2.57  61 2.57  85 2.57   6 2.57
   8  0.833  0.667  0.167-   1 2.57   5 2.57   9 2.57  21 2.57  43 2.57   4 2.57  26 2.57  38 2.57
                            11 2.57  25 2.57  70 2.57  66 2.57
   9  0.833  0.833  0.333-   1 2.57   5 2.57   8 2.57   6 2.57   3 2.57  11 2.57  22 2.57   2 2.57
                            26 2.57  27 2.57  12 2.57  10 2.57
  10  0.833  0.000  0.500-   7 2.57  35 2.57   2 2.57   6 2.57  23 2.57  27 2.57  12 2.57  39 2.57
                            28 2.57  67 2.57  64 2.57   9 2.57
  11  0.000  0.667  0.333-  26 2.57   9 2.57  29 2.57   8 2.57  30 2.57  12 2.57  70 2.57  49 2.57
                             3 2.57  75 2.57  43 2.57  13 2.57
  12  0.000  0.833  0.500-  13 2.57  44 2.57   3 2.57  11 2.57  27 2.57  30 2.57  39 2.57  10 2.57
                            31 2.57   9 2.57  71 2.57  67 2.57
  13  0.167  0.667  0.500-  33 2.57  30 2.57  12 2.57  81 2.57  32 2.57  76 2.57  71 2.57  44 2.57
                           102 2.57  49 2.57  11 2.57  75 2.57
  14  0.667  0.667  0.667-  39 2.57  20 2.57  15 2.57   2 2.57  63 2.57  87 2.57  97 2.57   3 2.57
                            82 2.57 108 2.57  34 2.57  19 2.57
  15  0.667  0.833  0.833-  20 2.57  39 2.57  14 2.57  35 2.57   4 2.57  21 2.57  40 2.57  82 2.57
                            97 2.57  83 2.57  98 2.57  16 2.57
  16  0.667  0.000  0.000-  21 2.57  40 2.57  22 2.57  41 2.57   5 2.57  36 2.57  84 2.57  99 2.57
                            83 2.57  98 2.57  17 2.57  15 2.57
  17  0.667  0.167  0.167-  42 2.57  23 2.57  18 2.57   6 2.57  37 2.57  22 2.57 100 2.57  85 2.57
                            41 2.57  84 2.57  99 2.57  16 2.57
  18  0.667  0.333  0.333-  23 2.57  42 2.57  17 2.57  38 2.57   7 2.57  24 2.57  43 2.57  85 2.57
                           100 2.57  86 2.57 101 2.57  19 2.57
  19  0.667  0.500  0.500-  24 2.57  43 2.57   3 2.57  87 2.57   1 2.57  62 2.57  34 2.57 108 2.57
                            86 2.57 101 2.57  14 2.57  18 2.57
  20  0.833  0.667  0.833-  15 2.57  39 2.57  14 2.57   4 2.57  44 2.57  45 2.57  63 2.57  21 2.57
                            87 2.57  66 2.57  89 2.57  25 2.57
  21  0.833  0.833  0.000-   4 2.57   8 2.57  16 2.57  25 2.57   5 2.57  15 2.57  20 2.57  40 2.57
                            45 2.57  46 2.57  26 2.57  22 2.57
  22  0.833  0.000  0.167-   6 2.57   9 2.57  17 2.57  16 2.57   5 2.57  27 2.57  23 2.57  26 2.57
                            41 2.57  46 2.57  47 2.57  21 2.57
  23  0.833  0.167  0.333-  18 2.57  42 2.57  17 2.57   7 2.57  47 2.57   6 2.57  48 2.57  24 2.57
                            22 2.57  27 2.57  10 2.57  28 2.57
  24  0.833  0.333  0.500-   7 2.57  19 2.57  28 2.57  64 2.57  62 2.57  18 2.57  23 2.57  43 2.57
                            48 2.57  49 2.57  88 2.57  87 2.57
  25  0.000  0.667  0.000-  21 2.57  45 2.57  51 2.57  26 2.57  50 2.57   8 2.57  70 2.57  92 2.57
                            66 2.57  20 2.57  29 2.57  89 2.57
  26  0.000  0.833  0.167-  11 2.57  29 2.57   9 2.57   8 2.57  30 2.57  25 2.57  27 2.57  22 2.57
                            46 2.57  51 2.57  52 2.57  21 2.57
  27  0.000  0.000  0.333-  47 2.57  52 2.57  22 2.57  26 2.57  12 2.57  30 2.57  10 2.57  23 2.57
                             9 2.57  53 2.57  31 2.57  28 2.57
  28  0.000  0.167  0.500-  24 2.57  48 2.57  54 2.57  88 2.57  31 2.57  64 2.57  67 2.57  53 2.57
                            10 2.57  23 2.57  90 2.57  27 2.57
  29  0.167  0.667  0.167-  56 2.57  32 2.57  30 2.57  51 2.57  26 2.57  75 2.57  96 2.57  55 2.57
                            11 2.57  70 2.57  25 2.57  92 2.57
  30  0.167  0.833  0.333-  32 2.57  56 2.57  29 2.57  52 2.57  13 2.57  33 2.57  11 2.57  26 2.57
                            57 2.57  12 2.57  27 2.57  31 2.57
  31  0.167  0.000  0.500-  33 2.57  57 2.57  58 2.57  93 2.57  53 2.57  67 2.57  71 2.57  28 2.57
                            12 2.57  27 2.57  90 2.57  30 2.57
  32  0.333  0.667  0.333-  30 2.57  56 2.57  29 2.57  13 2.57  59 2.57  60 2.57  75 2.57  33 2.57
                            96 2.57  81 2.57 101 2.57  34 2.57
  33  0.333  0.833  0.500-  13 2.57  31 2.57  34 2.57  76 2.57  71 2.57  30 2.57  32 2.57  57 2.57
                            60 2.57  61 2.57  97 2.57  93 2.57
  34  0.500  0.667  0.500-  33 2.57  60 2.57   2 2.57  97 2.57  19 2.57  76 2.57   1 2.57 108 2.57
                            81 2.57  14 2.57  32 2.57 101 2.57
  35  0.667  0.000  0.667-  40 2.57  39 2.57  15 2.57  10 2.57  98 2.57  64 2.57  36 2.57   7 2.57
                           105 2.57  97 2.57  61 2.57   2 2.57
  36  0.667  0.167  0.833-  62 2.57  64 2.57  65 2.57  40 2.57 106 2.57 105 2.57  41 2.57  37 2.57
                            35 2.57  16 2.57  99 2.57  98 2.57
  37  0.667  0.333  0.000-  41 2.57  17 2.57  65 2.57  42 2.57  66 2.57  99 2.57  36 2.57  63 2.57
                           100 2.57 107 2.57 106 2.57  38 2.57
  38  0.667  0.500  0.167-  43 2.57  42 2.57  18 2.57  66 2.57 101 2.57   8 2.57   1 2.57   4 2.57
                            59 2.57 100 2.57 107 2.57  37 2.57
  39  0.833  0.833  0.667-  15 2.57  20 2.57  14 2.57  35 2.57  44 2.57   2 2.57  45 2.57   3 2.57
                            40 2.57  12 2.57  10 2.57  67 2.57
  40  0.833  0.000  0.833-  35 2.57  36 2.57  64 2.57  16 2.57  67 2.57  15 2.57  39 2.57  21 2.57
                            45 2.57  68 2.57  46 2.57  41 2.57
  41  0.833  0.167  0.000-  37 2.57  65 2.57  17 2.57  16 2.57  36 2.57  69 2.57  42 2.57  22 2.57
                            68 2.57  46 2.57  47 2.57  40 2.57
  42  0.833  0.333  0.167-  18 2.57  23 2.57  17 2.57  38 2.57  47 2.57  37 2.57  48 2.57  41 2.57
                            43 2.57  66 2.57  69 2.57  70 2.57
  43  0.833  0.500  0.333-  38 2.57   8 2.57   1 2.57  19 2.57  70 2.57  18 2.57  42 2.57  48 2.57
                            24 2.57  11 2.57  49 2.57   3 2.57
  44  0.000  0.667  0.667-  45 2.57  39 2.57  12 2.57  89 2.57  20 2.57  71 2.57  50 2.57  13 2.57
                           102 2.57  87 2.57   3 2.57  49 2.57
  45  0.000  0.833  0.833-  44 2.57  25 2.57  50 2.57  67 2.57  71 2.57  20 2.57  39 2.57  21 2.57
                            40 2.57  72 2.57  51 2.57  46 2.57
  46  0.000  0.000  0.000-  22 2.57  26 2.57  41 2.57  51 2.57  68 2.57  72 2.57  21 2.57  73 2.57
                            52 2.57  40 2.57  47 2.57  45 2.57
  47  0.000  0.167  0.167-  48 2.57  42 2.57  27 2.57  69 2.57  23 2.57  53 2.57  74 2.57  73 2.57
                            52 2.57  22 2.57  41 2.57  46 2.57
  48  0.000  0.333  0.333-  47 2.57  28 2.57  53 2.57  70 2.57  74 2.57  23 2.57  42 2.57  24 2.57
                            43 2.57  75 2.57  54 2.57  49 2.57
  49  0.000  0.500  0.500-   3 2.57  11 2.57  54 2.57  75 2.57  87 2.57  88 2.57  13 2.57  24 2.57
                            43 2.57 102 2.57  48 2.57  44 2.57
  50  0.167  0.667  0.833-  71 2.57  76 2.57  77 2.57  45 2.57 104 2.57  44 2.57  55 2.57 102 2.57
                            51 2.57  25 2.57  92 2.57  89 2.57
  51  0.167  0.833  0.000-  55 2.57  29 2.57  77 2.57  56 2.57  25 2.57  78 2.57  50 2.57  72 2.57
                            46 2.57  26 2.57  45 2.57  52 2.57
  52  0.167  0.000  0.167-  57 2.57  56 2.57  30 2.57  27 2.57  78 2.57  79 2.57  53 2.57  47 2.57
                            73 2.57  26 2.57  46 2.57  51 2.57
  53  0.167  0.167  0.333-  74 2.57  79 2.57  80 2.57  57 2.57  48 2.57  58 2.57  47 2.57  54 2.57
                            52 2.57  31 2.57  28 2.57  27 2.57
  54  0.167  0.333  0.500-  58 2.57  90 2.57  80 2.57  81 2.57  28 2.57 103 2.57  53 2.57  88 2.57
                            49 2.57  75 2.57  48 2.57 102 2.57
  55  0.333  0.667  0.000-  51 2.57  77 2.57  29 2.57  50 2.57  83 2.57  92 2.57  56 2.57  82 2.57
                            96 2.57 107 2.57  59 2.57 104 2.57
  56  0.333  0.833  0.167-  30 2.57  32 2.57  29 2.57  52 2.57  59 2.57  51 2.57  60 2.57  55 2.57
                            57 2.57  78 2.57  83 2.57  84 2.57
  57  0.333  0.000  0.333-  52 2.57  53 2.57  79 2.57  31 2.57  84 2.57  30 2.57  56 2.57  33 2.57
                            60 2.57  85 2.57  61 2.57  58 2.57
  58  0.333  0.167  0.500-  54 2.57  80 2.57  90 2.57  53 2.57  86 2.57  31 2.57 103 2.57  85 2.57
                            93 2.57  61 2.57 105 2.57  57 2.57
  59  0.500  0.667  0.167-  60 2.57  56 2.57  83 2.57 101 2.57  32 2.57   5 2.57   1 2.57   4 2.57
                            38 2.57  96 2.57  55 2.57 107 2.57
  60  0.500  0.833  0.333-  59 2.57  34 2.57   1 2.57  84 2.57   5 2.57  32 2.57  56 2.57  33 2.57
                            57 2.57   6 2.57   2 2.57  61 2.57
  61  0.500  0.000  0.500-   2 2.57   6 2.57  58 2.57  85 2.57  93 2.57  97 2.57   7 2.57  33 2.57
                            35 2.57  57 2.57  60 2.57 105 2.57
  62  0.667  0.333  0.667-  36 2.57  64 2.57  65 2.57  24 2.57 106 2.57 105 2.57  87 2.57  63 2.57
                             7 2.57  19 2.57 108 2.57  86 2.57
  63  0.667  0.500  0.833-  87 2.57  65 2.57  14 2.57  66 2.57  20 2.57 108 2.57  62 2.57  37 2.57
                           107 2.57  82 2.57 106 2.57   4 2.57
  64  0.833  0.167  0.667-  36 2.57  62 2.57  65 2.57  24 2.57  40 2.57   7 2.57  35 2.57  68 2.57
                            88 2.57  28 2.57  67 2.57  10 2.57
[...]
     0.000000200 10.915301600  0.000000000     0.000000000  0.091614509 -0.000000002
     0.000000200  0.000000200 10.915301600     0.000000000  0.000000000  0.091614509

  length of vectors
    10.915301600 10.915301600 10.915301600     0.091614509  0.091614509  0.091614509

 FORCES acting on ions
    electron-ion (+dipol)            ewald-force                    non-local-force                 convergence-correction
   0.303E-04 0.303E-04 -.303E-04   -.504E-04 -.504E-04 0.504E-04   0.108E-22 0.838E-23 -.155E-22   0.222E-06 0.222E-06 -.222E-06
   0.303E-04 -.303E-04 0.652E-11   -.504E-04 0.504E-04 -.224E-12   -.209E-22 -.543E-23 0.000E+00   0.222E-06 -.222E-06 0.814E-12
   -.303E-04 0.303E-04 -.270E-11   0.504E-04 -.504E-04 0.508E-12   -.192E-22 -.586E-23 0.223E-22   -.222E-06 0.222E-06 0.469E-12
   0.303E-04 0.303E-04 0.182E-09   -.504E-04 -.504E-04 0.247E-11   0.447E-23 0.580E-23 -.141E-22   0.222E-06 0.222E-06 -.604E-12
   0.303E-04 -.303E-04 0.303E-04   -.504E-04 0.504E-04 -.504E-04   0.137E-22 0.796E-23 0.149E-22   0.222E-06 -.222E-06 0.222E-06
   0.303E-04 -.771E-12 -.303E-04   -.504E-04 0.392E-12 0.504E-04   -.204E-22 -.896E-23 -.159E-22   0.222E-06 0.598E-12 -.222E-06
   0.303E-04 0.303E-04 0.188E-09   -.504E-04 -.504E-04 0.190E-11   0.519E-23 -.174E-23 0.108E-22   0.222E-06 0.222E-06 0.793E-12
   -.303E-04 0.303E-04 0.303E-04   0.504E-04 -.504E-04 -.504E-04   0.144E-22 0.115E-22 -.132E-22   -.222E-06 0.222E-06 0.222E-06
   -.303E-04 -.303E-04 -.303E-04   0.504E-04 0.504E-04 0.504E-04   -.184E-22 -.118E-22 -.143E-23   -.222E-06 -.222E-06 -.222E-06
   -.303E-04 0.435E-12 -.820E-10   0.504E-04 -.148E-11 -.855E-12   0.479E-23 -.368E-24 -.951E-23   -.222E-06 0.499E-12 0.955E-12
   -.316E-12 0.303E-04 -.303E-04   0.214E-12 -.504E-04 0.504E-04   -.109E-22 -.122E-22 0.358E-22   0.225E-12 0.222E-06 -.222E-06
   0.470E-13 -.303E-04 -.907E-10   -.285E-12 0.504E-04 -.102E-11   -.451E-23 0.475E-23 -.219E-22   0.684E-14 -.222E-06 0.686E-12
   0.303E-04 0.303E-04 0.188E-09   -.504E-04 -.504E-04 0.265E-11   0.485E-23 0.219E-23 -.256E-22   0.222E-06 0.222E-06 0.250E-12
   0.303E-04 0.303E-04 0.303E-04   -.504E-04 -.504E-04 -.504E-04   -.178E-22 -.453E-23 0.232E-22   0.222E-06 0.222E-06 0.222E-06
   0.303E-04 -.303E-04 -.303E-04   -.504E-04 0.504E-04 0.504E-04   0.856E-24 0.624E-23 0.556E-23   0.222E-06 -.222E-06 -.222E-06
   0.303E-04 -.112E-11 0.911E-10   -.504E-04 0.981E-12 0.101E-11   0.327E-22 0.725E-23 0.993E-23   0.222E-06 0.753E-12 -.103E-11
   0.303E-04 0.303E-04 0.303E-04   -.504E-04 -.504E-04 -.504E-04   -.176E-22 -.151E-22 0.000E+00   0.222E-06 0.222E-06 0.222E-06
   0.303E-04 -.303E-04 -.303E-04   -.504E-04 0.504E-04 0.504E-04   0.698E-23 -.139E-24 0.767E-23   0.222E-06 -.222E-06 -.222E-06
   0.303E-04 0.639E-11 0.983E-10   -.504E-04 0.167E-11 0.580E-12   0.533E-23 0.478E-23 -.215E-22   0.222E-06 -.533E-12 0.277E-12
   -.303E-04 0.303E-04 -.303E-04   0.504E-04 -.504E-04 0.504E-04   0.426E-23 0.381E-23 -.125E-22   -.222E-06 0.222E-06 -.222E-06
   -.303E-04 -.303E-04 -.193E-09   0.504E-04 0.504E-04 -.240E-11   0.209E-22 0.880E-23 -.170E-22   -.222E-06 -.222E-06 -.696E-12
   -.303E-04 0.282E-12 0.303E-04   0.504E-04 -.556E-12 -.504E-04   -.239E-22 -.935E-23 -.703E-23   -.222E-06 0.707E-12 0.222E-06
   -.303E-04 0.303E-04 -.303E-04   0.504E-04 -.504E-04 0.504E-04   0.146E-23 0.654E-24 -.254E-22   -.222E-06 0.222E-06 -.222E-06
   -.303E-04 -.303E-04 -.174E-09   0.504E-04 0.504E-04 -.209E-11   0.795E-23 0.853E-23 0.215E-22   -.222E-06 -.222E-06 0.535E-12
   -.490E-12 0.303E-04 0.916E-10   0.579E-13 -.504E-04 0.135E-11   0.189E-22 0.418E-23 -.124E-22   -.236E-12 0.222E-06 -.582E-12
   -.140E-12 -.303E-04 0.303E-04   0.423E-12 0.504E-04 -.504E-04   -.143E-22 -.786E-23 0.438E-22   -.309E-12 -.222E-06 0.222E-06
   0.210E-12 -.774E-13 -.303E-04   -.552E-12 -.935E-12 0.504E-04   -.103E-24 -.725E-24 -.271E-22   -.270E-12 0.439E-12 -.222E-06
   -.376E-12 0.303E-04 0.927E-10   0.337E-12 -.504E-04 0.152E-11   0.144E-22 0.124E-22 0.269E-22   -.384E-13 0.222E-06 0.564E-12
   0.303E-04 0.303E-04 0.303E-04   -.504E-04 -.504E-04 -.504E-04   -.127E-22 -.660E-23 0.310E-22   0.222E-06 0.222E-06 0.222E-06
   0.303E-04 -.303E-04 -.303E-04   -.504E-04 0.504E-04 0.504E-04   0.197E-23 0.983E-24 -.333E-22   0.222E-06 -.222E-06 -.222E-06
   0.303E-04 -.108E-11 0.952E-10   -.504E-04 0.128E-11 0.156E-11   0.243E-22 0.477E-23 0.186E-22   0.222E-06 0.416E-12 0.773E-12
   -.303E-04 0.303E-04 -.303E-04   0.504E-04 -.504E-04 0.504E-04   0.347E-23 -.121E-23 0.104E-23   -.222E-06 0.222E-06 -.222E-06
   -.303E-04 -.303E-04 -.184E-09   0.504E-04 0.504E-04 -.188E-11   0.186E-22 0.955E-23 -.331E-22   -.222E-06 -.222E-06 0.806E-12
   0.131E-11 0.303E-04 0.905E-10   0.229E-12 -.504E-04 0.149E-11   0.859E-23 0.768E-23 -.149E-22   -.207E-12 0.222E-06 0.351E-12
   0.303E-04 -.154E-11 0.303E-04   -.504E-04 0.222E-11 -.504E-04   -.641E-24 0.337E-23 -.165E-23   0.222E-06 0.636E-12 0.222E-06
   0.303E-04 0.303E-04 -.303E-04   -.504E-04 -.504E-04 0.504E-04   0.114E-22 0.959E-23 -.312E-22   0.222E-06 0.222E-06 -.222E-06
   0.303E-04 -.303E-04 -.623E-12   -.504E-04 0.504E-04 -.191E-12   -.807E-23 -.545E-23 0.219E-22   0.222E-06 -.222E-06 -.529E-12
   0.303E-04 0.452E-11 0.303E-04   -.504E-04 0.292E-11 -.504E-04   0.265E-23 0.352E-23 -.620E-23   0.222E-06 -.593E-12 0.222E-06
   -.303E-04 -.303E-04 0.303E-04   0.504E-04 0.504E-04 -.504E-04   0.363E-24 0.345E-23 -.170E-22   -.222E-06 -.222E-06 0.222E-06
   -.303E-04 0.814E-12 -.303E-04   0.504E-04 -.253E-11 0.504E-04   0.236E-22 0.908E-23 -.238E-22   -.222E-06 0.664E-12 -.222E-06
   -.303E-04 0.303E-04 0.283E-11   0.504E-04 -.504E-04 0.401E-12   -.211E-22 -.146E-22 0.223E-22   -.222E-06 0.222E-06 -.706E-12
   -.303E-04 -.303E-04 0.303E-04   0.504E-04 0.504E-04 -.504E-04   0.753E-23 0.320E-23 0.290E-23   -.222E-06 -.222E-06 0.222E-06
   -.303E-04 0.409E-11 -.303E-04   0.504E-04 -.207E-11 0.504E-04   0.738E-23 0.100E-22 -.134E-22   -.222E-06 -.533E-12 -.222E-06
   -.886E-12 0.303E-04 0.303E-04   0.480E-12 -.504E-04 -.504E-04   0.280E-23 0.396E-23 -.744E-23   0.455E-13 0.222E-06 0.222E-06
   0.346E-12 -.303E-04 -.303E-04   -.544E-12 0.504E-04 0.504E-04   0.275E-22 0.278E-23 -.241E-22   -.442E-12 -.222E-06 -.222E-06
   -.199E-12 -.270E-12 -.147E-12   -.106E-12 -.454E-12 0.139E-12   -.197E-22 -.110E-22 0.136E-22   -.896E-12 0.508E-12 -.898E-12
   -.787E-12 0.303E-04 0.303E-04   0.907E-12 -.504E-04 -.504E-04   0.435E-23 0.143E-23 -.314E-22   -.597E-12 0.222E-06 0.222E-06
   0.319E-12 -.303E-04 -.303E-04   -.668E-12 0.504E-04 0.504E-04   0.669E-23 0.138E-22 0.559E-23   0.128E-12 -.222E-06 -.222E-06
   -.285E-12 0.163E-11 0.136E-11   -.216E-12 0.214E-12 0.338E-13   -.779E-23 -.108E-22 0.265E-22   0.346E-12 -.441E-12 0.304E-12
   0.303E-04 0.303E-04 -.303E-04   -.504E-04 -.504E-04 0.504E-04   0.152E-22 0.846E-23 -.556E-23   0.222E-06 0.222E-06 -.222E-06
   0.303E-04 -.303E-04 0.494E-11   -.504E-04 0.504E-04 0.106E-12   -.152E-22 -.978E-23 0.786E-23   0.222E-06 -.222E-06 -.727E-12
   0.303E-04 -.144E-11 0.303E-04   -.504E-04 0.283E-11 -.504E-04   -.263E-23 0.706E-23 0.496E-23   0.222E-06 0.317E-12 0.222E-06
   0.303E-04 0.303E-04 -.303E-04   -.504E-04 -.504E-04 0.504E-04   0.150E-22 0.139E-22 0.126E-22   0.222E-06 0.222E-06 -.222E-06
   0.303E-04 -.303E-04 0.648E-11   -.504E-04 0.504E-04 -.173E-12   -.170E-22 -.754E-23 0.145E-22   0.222E-06 -.222E-06 0.374E-12
   -.303E-04 0.303E-04 -.982E-12   0.504E-04 -.504E-04 0.511E-12   -.191E-22 -.748E-23 0.331E-23   -.222E-06 0.222E-06 -.357E-12
   -.303E-04 -.303E-04 0.303E-04   0.504E-04 0.504E-04 -.504E-04   -.645E-24 0.608E-23 -.347E-22   -.222E-06 -.222E-06 0.222E-06
   -.303E-04 0.952E-12 -.303E-04   0.504E-04 -.257E-11 0.504E-04   0.217E-22 0.451E-23 0.974E-23   -.222E-06 0.344E-12 -.222E-06
   -.303E-04 0.303E-04 0.495E-11   0.504E-04 -.504E-04 0.335E-12   -.195E-22 -.145E-22 0.141E-22   -.222E-06 0.222E-06 0.882E-12
   0.904E-12 0.303E-04 0.303E-04   0.147E-12 -.504E-04 -.504E-04   0.557E-23 0.190E-23 0.116E-22   0.255E-13 0.222E-06 0.222E-06
   0.201E-11 -.303E-04 -.303E-04   -.516E-12 0.504E-04 0.504E-04   0.223E-22 0.383E-23 -.205E-22   0.158E-12 -.222E-06 -.222E-06
[...]
   -.303E-04 -.303E-04 -.184E-09   0.504E-04 0.504E-04 -.209E-11   0.117E-22 0.140E-22 0.331E-22   -.222E-06 -.222E-06 -.472E-12
   -.303E-04 0.458E-11 0.303E-04   0.504E-04 -.913E-12 -.504E-04   -.114E-22 -.359E-23 0.364E-22   -.222E-06 -.265E-12 0.222E-06
   0.153E-11 -.303E-04 0.303E-04   0.194E-13 0.504E-04 -.504E-04   -.211E-22 -.654E-23 0.376E-22   0.246E-12 -.222E-06 0.222E-06
   0.177E-11 -.416E-13 -.303E-04   -.170E-11 -.694E-12 0.504E-04   -.843E-24 0.296E-23 -.217E-22   0.653E-12 0.601E-12 -.222E-06
   0.119E-11 0.303E-04 0.910E-10   0.194E-12 -.504E-04 0.128E-11   0.176E-22 0.973E-23 0.261E-22   0.908E-12 0.222E-06 -.106E-11
   0.153E-11 -.303E-04 0.303E-04   0.585E-12 0.504E-04 -.504E-04   -.132E-22 -.792E-23 0.227E-22   0.406E-12 -.222E-06 0.222E-06
   0.188E-11 0.293E-11 -.303E-04   -.682E-12 -.133E-11 0.504E-04   0.146E-23 0.434E-23 0.313E-22   -.232E-12 -.453E-12 -.222E-06
   0.303E-04 -.522E-12 0.303E-04   -.504E-04 0.238E-11 -.504E-04   -.268E-24 0.368E-23 -.290E-22   0.222E-06 -.474E-12 0.222E-06
   -.303E-04 -.303E-04 0.303E-04   0.504E-04 0.504E-04 -.504E-04   0.145E-22 -.120E-23 -.236E-22   -.222E-06 -.222E-06 0.222E-06
   -.303E-04 -.169E-12 -.303E-04   0.504E-04 -.206E-11 0.504E-04   0.741E-23 0.163E-22 -.205E-22   -.222E-06 -.424E-12 -.222E-06
   0.773E-12 0.303E-04 0.303E-04   0.864E-12 -.504E-04 -.504E-04   0.575E-23 -.450E-23 -.161E-22   0.322E-12 0.222E-06 0.222E-06
   0.201E-11 -.303E-04 -.303E-04   -.857E-12 0.504E-04 0.504E-04   0.844E-23 0.368E-23 0.406E-23   0.400E-12 -.222E-06 -.222E-06
   0.150E-11 -.976E-11 -.652E-12   -.103E-12 0.487E-12 -.511E-12   -.645E-23 -.210E-23 0.323E-22   0.220E-12 -.479E-12 -.272E-12
   0.120E-11 0.218E-11 0.303E-04   0.177E-12 0.117E-11 -.504E-04   0.589E-23 0.858E-23 -.199E-22   -.103E-12 -.605E-12 0.222E-06
   0.119E-09 0.157E-09 0.143E-09   -.524E-11 0.940E-12 0.139E-11   0.863E-22 0.547E-22 0.311E-21   -.220E-11 -.109E-11 0.712E-11

 POSITION                                       TOTAL-FORCE (eV/Angst)
      7.27687      7.27687      3.63843        -0.000000      0.000000      0.000000
      7.27687      9.09608      5.45765        -0.000000     -0.000000      0.000000
      9.09608      7.27687      5.45765        -0.000000     -0.000000      0.000000
      7.27687      7.27687      0.00000         0.000000     -0.000000      0.000000
      7.27687      9.09608      1.81922        -0.000000      0.000000      0.000000
      7.27687      0.00000      3.63843        -0.000000     -0.000000     -0.000000
      7.27687      1.81922      5.45765         0.000000     -0.000000      0.000000
      9.09608      7.27687      1.81922        -0.000000      0.000000     -0.000000
      9.09608      9.09608      3.63843        -0.000000     -0.000000      0.000000
      9.09608      0.00000      5.45765         0.000000      0.000000     -0.000000
      0.00000      7.27687      3.63843        -0.000000     -0.000000      0.000000
      0.00000      9.09608      5.45765         0.000000     -0.000000      0.000000
      1.81922      7.27687      5.45765         0.000000     -0.000000      0.000000
      7.27687      7.27687      7.27687        -0.000000     -0.000000      0.000000
      7.27687      9.09608      9.09608         0.000000     -0.000000      0.000000
      7.27687      0.00000      0.00000         0.000000      0.000000      0.000000
      7.27687      1.81922      1.81922        -0.000000     -0.000000      0.000000
      7.27687      3.63843      3.63843         0.000000     -0.000000     -0.000000
      7.27687      5.45765      5.45765        -0.000000      0.000000     -0.000000
      9.09608      7.27687      9.09608         0.000000     -0.000000      0.000000
      9.09608      9.09608      0.00000         0.000000      0.000000     -0.000000
      9.09608      0.00000      1.81922        -0.000000     -0.000000      0.000000
      9.09608      1.81922      3.63843         0.000000     -0.000000     -0.000000
      9.09608      3.63843      5.45765        -0.000000      0.000000      0.000000
      0.00000      7.27687      0.00000        -0.000000      0.000000     -0.000000
      0.00000      9.09608      1.81922        -0.000000     -0.000000     -0.000000
      0.00000      0.00000      3.63843         0.000000     -0.000000     -0.000000
      0.00000      1.81922      5.45765        -0.000000     -0.000000     -0.000000
      1.81922      7.27687      1.81922        -0.000000     -0.000000      0.000000
      1.81922      9.09608      3.63843         0.000000     -0.000000      0.000000
      1.81922      0.00000      5.45765         0.000000      0.000000      0.000000
      3.63843      7.27687      3.63843         0.000000      0.000000      0.000000
      3.63843      9.09608      5.45765        -0.000000      0.000000     -0.000000
      5.45765      7.27687      5.45765        -0.000000      0.000000     -0.000000
      7.27687      0.00000      7.27687         0.000000     -0.000000      0.000000
      7.27687      1.81922      9.09608        -0.000000      0.000000     -0.000000
      7.27687      3.63843      0.00000        -0.000000     -0.000000     -0.000000
      7.27687      5.45765      1.81922         0.000000     -0.000000      0.000000
      9.09608      9.09608      7.27687         0.000000     -0.000000      0.000000
      9.09608      0.00000      9.09608         0.000000      0.000000      0.000000
      9.09608      1.81922      0.00000        -0.000000     -0.000000      0.000000
      9.09608      3.63843      1.81922         0.000000     -0.000000     -0.000000
      9.09608      5.45765      3.63843        -0.000000      0.000000      0.000000
      0.00000      7.27687      7.27687         0.000000     -0.000000      0.000000
      0.00000      9.09608      9.09608        -0.000000      0.000000     -0.000000
      0.00000      0.00000      0.00000        -0.000000     -0.000000     -0.000000
      0.00000      1.81922      1.81922         0.000000      0.000000      0.000000
      0.00000      3.63843      3.63843        -0.000000     -0.000000     -0.000000
      0.00000      5.45765      5.45765        -0.000000     -0.000000      0.000000
      1.81922      7.27687      9.09608        -0.000000      0.000000      0.000000
      1.81922      9.09608      0.00000        -0.000000     -0.000000      0.000000
      1.81922      0.00000      1.81922         0.000000      0.000000     -0.000000
      1.81922      1.81922      3.63843        -0.000000      0.000000     -0.000000
      1.81922      3.63843      5.45765        -0.000000     -0.000000     -0.000000
      3.63843      7.27687      0.00000        -0.000000     -0.000000     -0.000000
      3.63843      9.09608      1.81922         0.000000     -0.000000      0.000000
      3.63843      0.00000      3.63843         0.000000      0.000000     -0.000000
      3.63843      1.81922      5.45765        -0.000000     -0.000000      0.000000
      5.45765      7.27687      1.81922         0.000000     -0.000000      0.000000
      5.45765      9.09608      3.63843        -0.000000      0.000000      0.000000
[...]
      3.63843      1.81922      9.09608         0.000000      0.000000     -0.000000
      3.63843      3.63843      0.00000        -0.000000      0.000000      0.000000
      3.63843      5.45765      1.81922        -0.000000     -0.000000      0.000000
      5.45765      9.09608      7.27687        -0.000000     -0.000000      0.000000
      5.45765      0.00000      9.09608         0.000000     -0.000000      0.000000
      5.45765      1.81922      0.00000        -0.000000      0.000000     -0.000000
      5.45765      3.63843      1.81922        -0.000000     -0.000000     -0.000000
      5.45765      5.45765      3.63843         0.000000     -0.000000      0.000000
      1.81922      5.45765      7.27687         0.000000     -0.000000      0.000000
      3.63843      3.63843      7.27687         0.000000      0.000000     -0.000000
      3.63843      5.45765      9.09608        -0.000000      0.000000      0.000000
      5.45765      1.81922      7.27687         0.000000     -0.000000      0.000000
      5.45765      3.63843      9.09608        -0.000000      0.000000     -0.000000
      5.45765      5.45765      0.00000        -0.000000     -0.000000      0.000000
      5.45765      5.45765      7.27687        -0.000000      0.000000     -0.000000
    total drift:                                0.000000      0.000000      0.000000

 reached required accuracy - stopping structural energy minimisation
 writing wavefunctions