 vasp.4.6.28 25Jul05 complex
 executed on             LinuxIFC date 2017.01.14  03:53:34

 INCAR:
 POTCAR:   PAW_PBE Cu 05Jan2001
 POTCAR:   PAW_PBE Cu 05Jan2001
   VRHFIN =Cu: d10 p1

   TITEL  = PAW_PBE Cu 05Jan2001
   POMASS =   63.546; ZVAL   =   11.000    mass and valenz
   ENMAX  =  273.214; ENMIN  =  204.910 eV
   QCUT   =   -4.481; QGAM   =    8.962    optimization parameters

   Description
     l     E      TYP  RCUT    TYP  RCUT
     2   .000     23  2.300
     2   .000     23  2.300
     0   .000     23  2.300
     0   .000     23  2.300
     1  -.200     23  2.300
     1   .000     23  2.300
     3   .000      7   .000

 PAW_PBE Cu 05Jan2001                   :

 POSCAR: Cu
  positions in direct lattice
  velocities in cartesian coordinates

 ion  position               nearest neighbor table
   1  0.000  0.000  0.000-   2 2.52   3 2.52   4 2.52   3 2.52   4 2.52   2 2.52   4 2.52   4 2.52
                             2 2.52   3 2.52   3 2.52   2 2.52
   2  0.500  0.500  0.000-   1 2.52   3 2.52   4 2.52   3 2.52   4 2.52   1 2.52   3 2.52   3 2.52
                             1 2.52   4 2.52   4 2.52   1 2.52
   3  0.500  0.000  0.500-   1 2.52   2 2.52   4 2.52   1 2.52   2 2.52   2 2.52   4 2.52   2 2.52
                             1 2.52   4 2.52   1 2.52   4 2.52
   4  0.000  0.500  0.500-   1 2.52   2 2.52   3 2.52   1 2.52   2 2.52   1 2.52   3 2.52   1 2.52
                             2 2.52   3 2.52   2 2.52   3 2.52

  LATTYP: Found a simple cubic cell.
 ALAT       =     3.5640877407

  Lattice vectors:

 A1 = (   3.5640877407,   0.0000000000,   0.0000000000)
 A2 = (   0.0000000000,   3.5640877407,   0.0000000000)
 A3 = (   0.0000000000,   0.0000000000,   3.5640877407)
 Subroutine PRICEL returns following result:

  LATTYP: Found a face centered cubic cell.
 ALAT       =     3.5640877407

  Lattice vectors:

 A1 = (   1.7820438703,   1.7820438703,   0.0000000000)
 A2 = (   1.7820438703,   0.0000000000,  -1.7820438703)
 A3 = (   0.0000000000,   1.7820438703,  -1.7820438703)

   4 primitive cells build up your supercell.

Analysis of symmetry for initial positions (statically):

 Routine SETGRP: Setting up the symmetry group for a
 simple cubic supercell.

 Subroutine GETGRP returns: Found 48 space group operations
 (whereof 48 operations were pure point group operations)
 out of a pool of 48 trial point group operations.

The static configuration has the point symmetry O_h .

Analysis of symmetry for dynamics (positions and initial velocities):

 Subroutine DYNSYM returns: Found 48 space group operations
 (whereof 48 operations were pure point group operations)
 out of a pool of 48 trial space group operations
 (whereof 48 operations were pure point group operations)
 and found also     4 'primitive' translations

The dynamic configuration has the point symmetry O_h .

 KPOINTS: Automatic mesh

Automatic generation of k-mesh.

 Subroutine IBZKPT returns following result:

 Found   1330 irreducible k-points:

 Following reciprocal coordinates:
            Coordinates               Weight
  0.000000  0.000000  0.000000      1.000000
  0.027778  0.000000  0.000000      6.000000
  0.055556  0.000000  0.000000      6.000000
  0.083333  0.000000  0.000000      6.000000
  0.111111  0.000000  0.000000      6.000000
  0.138889  0.000000  0.000000      6.000000
  0.166667  0.000000  0.000000      6.000000
  0.194444  0.000000  0.000000      6.000000
  0.222222  0.000000  0.000000      6.000000
  0.250000  0.000000  0.000000      6.000000
  0.277778  0.000000  0.000000      6.000000
  0.305556  0.000000  0.000000      6.000000
  0.333333  0.000000  0.000000      6.000000
  0.361111  0.000000  0.000000      6.000000
  0.388889  0.000000  0.000000      6.000000
  0.416667  0.000000  0.000000      6.000000
  0.444444  0.000000  0.000000      6.000000
  0.472222  0.000000  0.000000      6.000000
  0.500000  0.000000  0.000000      3.000000
  0.027778  0.027778  0.000000     12.000000
  0.055556  0.027778  0.000000     24.000000
  0.083333  0.027778  0.000000     24.000000
  0.111111  0.027778  0.000000     24.000000
  0.138889  0.027778  0.000000     24.000000
  0.166667  0.027778  0.000000     24.000000
  0.194444  0.027778  0.000000     24.000000
  0.222222  0.027778  0.000000     24.000000
  0.250000  0.027778  0.000000     24.000000
  0.277778  0.027778  0.000000     24.000000
  0.305556  0.027778  0.000000     24.000000
  0.333333  0.027778  0.000000     24.000000
  0.361111  0.027778  0.000000     24.000000
  0.388889  0.027778  0.000000     24.000000
  0.416667  0.027778  0.000000     24.000000
  0.444444  0.027778  0.000000     24.000000
  0.472222  0.027778  0.000000     24.000000
  0.500000  0.027778  0.000000     12.000000
  0.055556  0.055556  0.000000     12.000000
  0.083333  0.055556  0.000000     24.000000
  0.111111  0.055556  0.000000     24.000000
  0.138889  0.055556  0.000000     24.000000
  0.166667  0.055556  0.000000     24.000000
  0.194444  0.055556  0.000000     24.000000
  0.222222  0.055556  0.000000     24.000000
  0.250000  0.055556  0.000000     24.000000
  0.277778  0.055556  0.000000     24.000000
  0.305556  0.055556  0.000000     24.000000
  0.333333  0.055556  0.000000     24.000000
  0.361111  0.055556  0.000000     24.000000
  0.388889  0.055556  0.000000     24.000000
  0.416667  0.055556  0.000000     24.000000
  0.444444  0.055556  0.000000     24.000000
  0.472222  0.055556  0.000000     24.000000
  0.500000  0.055556  0.000000     12.000000
  0.083333  0.083333  0.000000     12.000000
  0.111111  0.083333  0.000000     24.000000
  0.138889  0.083333  0.000000     24.000000
  0.166667  0.083333  0.000000     24.000000
  0.194444  0.083333  0.000000     24.000000
  0.222222  0.083333  0.000000     24.000000
[...]
  0.472222  0.444444  0.416667     48.000000
  0.500000  0.444444  0.416667     24.000000
  0.472222  0.472222  0.416667     24.000000
  0.500000  0.472222  0.416667     24.000000
  0.500000  0.500000  0.416667      6.000000
  0.444444  0.444444  0.444444      8.000000
  0.472222  0.444444  0.444444     24.000000
  0.500000  0.444444  0.444444     12.000000
  0.472222  0.472222  0.444444     24.000000
  0.500000  0.472222  0.444444     24.000000
  0.500000  0.500000  0.444444      6.000000
  0.472222  0.472222  0.472222      8.000000
  0.500000  0.472222  0.472222     12.000000
  0.500000  0.500000  0.472222      6.000000
  0.500000  0.500000  0.500000      1.000000

 Following cartesian coordinates:
            Coordinates               Weight
  0.000000  0.000000  0.000000      1.000000
  0.007638  0.000000  0.000000      6.000000
  0.015276  0.000000  0.000000      6.000000
  0.022914  0.000000  0.000000      6.000000
  0.030552  0.000000  0.000000      6.000000
  0.038190  0.000000  0.000000      6.000000
  0.045828  0.000000  0.000000      6.000000
  0.053465  0.000000  0.000000      6.000000
  0.061103  0.000000  0.000000      6.000000
  0.068741  0.000000  0.000000      6.000000
  0.076379  0.000000  0.000000      6.000000
  0.084017  0.000000  0.000000      6.000000
  0.091655  0.000000  0.000000      6.000000
  0.099293  0.000000  0.000000      6.000000
  0.106931  0.000000  0.000000      6.000000
  0.114569  0.000000  0.000000      6.000000
  0.122207  0.000000  0.000000      6.000000
  0.129845  0.000000  0.000000      6.000000
  0.137483  0.000000  0.000000      3.000000
  0.007638  0.007638  0.000000     12.000000
  0.015276  0.007638  0.000000     24.000000
  0.022914  0.007638  0.000000     24.000000
  0.030552  0.007638  0.000000     24.000000
  0.038190  0.007638  0.000000     24.000000
  0.045828  0.007638  0.000000     24.000000
  0.053465  0.007638  0.000000     24.000000
  0.061103  0.007638  0.000000     24.000000
  0.068741  0.007638  0.000000     24.000000
  0.076379  0.007638  0.000000     24.000000
  0.084017  0.007638  0.000000     24.000000
  0.091655  0.007638  0.000000     24.000000
  0.099293  0.007638  0.000000     24.000000
  0.106931  0.007638  0.000000     24.000000
  0.114569  0.007638  0.000000     24.000000
  0.122207  0.007638  0.000000     24.000000
  0.129845  0.007638  0.000000     24.000000
  0.137483  0.007638  0.000000     12.000000
  0.015276  0.015276  0.000000     12.000000
  0.022914  0.015276  0.000000     24.000000
  0.030552  0.015276  0.000000     24.000000
  0.038190  0.015276  0.000000     24.000000
  0.045828  0.015276  0.000000     24.000000
  0.053465  0.015276  0.000000     24.000000
  0.061103  0.015276  0.000000     24.000000
  0.068741  0.015276  0.000000     24.000000
  0.076379  0.015276  0.000000     24.000000
  0.084017  0.015276  0.000000     24.000000
  0.091655  0.015276  0.000000     24.000000
  0.099293  0.015276  0.000000     24.000000
  0.106931  0.015276  0.000000     24.000000
  0.114569  0.015276  0.000000     24.000000
  0.122207  0.015276  0.000000     24.000000
  0.129845  0.015276  0.000000     24.000000
  0.137483  0.015276  0.000000     12.000000
  0.022914  0.022914  0.000000     12.000000
  0.030552  0.022914  0.000000     24.000000
  0.038190  0.022914  0.000000     24.000000
  0.045828  0.022914  0.000000     24.000000
  0.053465  0.022914  0.000000     24.000000
  0.061103  0.022914  0.000000     24.000000
[...]
  0.129845  0.122207  0.114569     48.000000
  0.137483  0.122207  0.114569     24.000000
  0.129845  0.129845  0.114569     24.000000
  0.137483  0.129845  0.114569     24.000000
  0.137483  0.137483  0.114569      6.000000
  0.122207  0.122207  0.122207      8.000000
  0.129845  0.122207  0.122207     24.000000
  0.137483  0.122207  0.122207     12.000000
  0.129845  0.129845  0.122207     24.000000
  0.137483  0.129845  0.122207     24.000000
  0.137483  0.137483  0.122207      6.000000
  0.129845  0.129845  0.129845      8.000000
  0.137483  0.129845  0.129845     12.000000
  0.137483  0.137483  0.129845      6.000000
  0.137483  0.137483  0.137483      1.000000

 I would recommend the setting:
   dimension x,y,z NGX =    37 NGY =   37 NGZ =   37
 SYSTEM =  unknown system
 POSCAR =  Cu

 Startparameter for this run:
   NWRITE =      2    write-flag & timer
   PREC   = accura    medium, high low
   ISTART =      0    job   : 0-new  1-cont  2-samecut
   ICHARG =      2    charge: 1-file 2-atom 10-const
   ISPIN  =      1    spin polarized calculation?
   LNONCOLLINEAR =      F non collinear calculations
   LSORBIT =      F    spin-orbit coupling
   INIWAV =      1    electr: 0-lowe 1-rand  2-diag
   LASPH  =      F    aspherical Exc in radial PAW
   METAGGA=      F    non-selfconsistent MetaGGA calc.

 Electronic Relaxation 1
   ENCUT  = 1000.0 eV  73.50 Ry    8.57 a.u.   9.19  9.19  9.19*2*pi/ulx,y,z
   ENINI  = 1000.0     initial cutoff
   ENAUG  =  516.5 eV  augmentation charge cutoff
   NELM   =     60;   NELMIN=  2; NELMDL=  0     # of ELM steps
   EDIFF  = 0.1E-07   stopping-criterion for ELM
   LREAL  =      F    real-space projection
   LCOMPAT=      F    compatible to vasp.4.4
   LREAL_COMPAT= F    compatible to vasp.4.5.1-3
   GGA_COMPAT  = T    GGA compatible to vasp.4.4-vasp.4.6
   LMAXPAW     = -100 max onsite density
   LMAXMIX     =    2 max onsite mixed and CHGCAR
[...]
 k-point 25 :  0.16670.02780.0000  plane waves:   3238
 k-point 26 :  0.19440.02780.0000  plane waves:   3235
 k-point 27 :  0.22220.02780.0000  plane waves:   3227
 k-point 28 :  0.25000.02780.0000  plane waves:   3223
 k-point 29 :  0.27780.02780.0000  plane waves:   3221
 k-point 30 :  0.30560.02780.0000  plane waves:   3230
 k-point 31 :  0.33330.02780.0000  plane waves:   3238
 k-point 32 :  0.36110.02780.0000  plane waves:   3246
 k-point 33 :  0.38890.02780.0000  plane waves:   3256
 k-point 34 :  0.41670.02780.0000  plane waves:   3252
 k-point 35 :  0.44440.02780.0000  plane waves:   3255
 k-point 36 :  0.47220.02780.0000  plane waves:   3241
 k-point 37 :  0.50000.02780.0000  plane waves:   3240
 k-point 38 :  0.05560.05560.0000  plane waves:   3241
 k-point 39 :  0.08330.05560.0000  plane waves:   3237
 k-point 40 :  0.11110.05560.0000  plane waves:   3243
 k-point 41 :  0.13890.05560.0000  plane waves:   3243
 k-point 42 :  0.16670.05560.0000  plane waves:   3244
 k-point 43 :  0.19440.05560.0000  plane waves:   3239
 k-point 44 :  0.22220.05560.0000  plane waves:   3231
 k-point 45 :  0.25000.05560.0000  plane waves:   3230
 k-point 46 :  0.27780.05560.0000  plane waves:   3233
 k-point 47 :  0.30560.05560.0000  plane waves:   3237
 k-point 48 :  0.33330.05560.0000  plane waves:   3243
 k-point 49 :  0.36110.05560.0000  plane waves:   3241
 k-point 50 :  0.38890.05560.0000  plane waves:   3260
 k-point 51 :  0.41670.05560.0000  plane waves:   3264
 k-point 52 :  0.44440.05560.0000  plane waves:   3254
 k-point 53 :  0.47220.05560.0000  plane waves:   3254
 k-point 54 :  0.50000.05560.0000  plane waves:   3252
 k-point 55 :  0.08330.08330.0000  plane waves:   3243
 k-point 56 :  0.11110.08330.0000  plane waves:   3241
 k-point 57 :  0.13890.08330.0000  plane waves:   3241
 k-point 58 :  0.16670.08330.0000  plane waves:   3243
 k-point 59 :  0.19440.08330.0000  plane waves:   3236
 k-point 60 :  0.22220.08330.0000  plane waves:   3234
[...]
 k-point 85 :  0.50000.11110.0000  plane waves:   3262
 k-point 86 :  0.13890.13890.0000  plane waves:   3241
 k-point 87 :  0.16670.13890.0000  plane waves:   3237
 k-point 88 :  0.19440.13890.0000  plane waves:   3234
 k-point 89 :  0.22220.13890.0000  plane waves:   3229
 k-point 90 :  0.25000.13890.0000  plane waves:   3240
 k-point 91 :  0.27780.13890.0000  plane waves:   3240
 k-point 92 :  0.30560.13890.0000  plane waves:   3248
 k-point 93 :  0.33330.13890.0000  plane waves:   3248
 k-point 94 :  0.36110.13890.0000  plane waves:   3255
 k-point 95 :  0.38890.13890.0000  plane waves:   3265
 k-point 96 :  0.41670.13890.0000  plane waves:   3259
 k-point 97 :  0.44440.13890.0000  plane waves:   3256
 k-point 98 :  0.47220.13890.0000  plane waves:   3264
 k-point 99 :  0.50000.13890.0000  plane waves:   3266
 k-point ** :  0.16670.16670.0000  plane waves:   3239
 k-point ** :  0.19440.16670.0000  plane waves:   3239
 k-point ** :  0.22220.16670.0000  plane waves:   3239
 k-point ** :  0.25000.16670.0000  plane waves:   3240
 k-point ** :  0.27780.16670.0000  plane waves:   3241
 k-point ** :  0.30560.16670.0000  plane waves:   3249
 k-point ** :  0.33330.16670.0000  plane waves:   3245
 k-point ** :  0.36110.16670.0000  plane waves:   3261
 k-point ** :  0.38890.16670.0000  plane waves:   3264
 k-point ** :  0.41670.16670.0000  plane waves:   3257
 k-point ** :  0.44440.16670.0000  plane waves:   3267
 k-point ** :  0.47220.16670.0000  plane waves:   3266
 k-point ** :  0.50000.16670.0000  plane waves:   3268
 k-point ** :  0.19440.19440.0000  plane waves:   3237
 k-point ** :  0.22220.19440.0000  plane waves:   3238
 k-point ** :  0.25000.19440.0000  plane waves:   3237
 k-point ** :  0.27780.19440.0000  plane waves:   3241
 k-point ** :  0.30560.19440.0000  plane waves:   3254
 k-point ** :  0.33330.19440.0000  plane waves:   3262
 k-point ** :  0.36110.19440.0000  plane waves:   3262
 k-point ** :  0.38890.19440.0000  plane waves:   3267
 k-point ** :  0.41670.19440.0000  plane waves:   3269
 k-point ** :  0.44440.19440.0000  plane waves:   3264
 k-point ** :  0.47220.19440.0000  plane waves:   3262
 k-point ** :  0.50000.19440.0000  plane waves:   3262
 k-point ** :  0.22220.22220.0000  plane waves:   3245
 k-point ** :  0.25000.22220.0000  plane waves:   3245
 k-point ** :  0.27780.22220.0000  plane waves:   3243
 k-point ** :  0.30560.22220.0000  plane waves:   3250
 k-point ** :  0.33330.22220.0000  plane waves:   3263
 k-point ** :  0.36110.22220.0000  plane waves:   3261
 k-point ** :  0.38890.22220.0000  plane waves:   3260
 k-point ** :  0.41670.22220.0000  plane waves:   3275
 k-point ** :  0.44440.22220.0000  plane waves:   3272
 k-point ** :  0.47220.22220.0000  plane waves:   3276
 k-point ** :  0.50000.22220.0000  plane waves:   3278
 k-point ** :  0.25000.25000.0000  plane waves:   3243
 k-point ** :  0.27780.25000.0000  plane waves:   3244
 k-point ** :  0.30560.25000.0000  plane waves:   3250
 k-point ** :  0.33330.25000.0000  plane waves:   3256
 k-point ** :  0.36110.25000.0000  plane waves:   3259
 k-point ** :  0.38890.25000.0000  plane waves:   3263
 k-point ** :  0.41670.25000.0000  plane waves:   3271
 k-point ** :  0.44440.25000.0000  plane waves:   3271
 k-point ** :  0.47220.25000.0000  plane waves:   3276
 k-point ** :  0.50000.25000.0000  plane waves:   3294
 k-point ** :  0.27780.27780.0000  plane waves:   3243
 k-point ** :  0.30560.27780.0000  plane waves:   3252
 k-point ** :  0.33330.27780.0000  plane waves:   3258
 k-point ** :  0.36110.27780.0000  plane waves:   3256
 k-point ** :  0.38890.27780.0000  plane waves:   3263
 k-point ** :  0.41670.27780.0000  plane waves:   3259
 k-point ** :  0.44440.27780.0000  plane waves:   3267
 k-point ** :  0.47220.27780.0000  plane waves:   3267
 k-point ** :  0.50000.27780.0000  plane waves:   3278
 k-point ** :  0.30560.30560.0000  plane waves:   3259
 k-point ** :  0.33330.30560.0000  plane waves:   3260
 k-point ** :  0.36110.30560.0000  plane waves:   3256
 k-point ** :  0.38890.30560.0000  plane waves:   3250
 k-point ** :  0.41670.30560.0000  plane waves:   3259
[...]
 k-point ** :  0.47220.44440.4167  plane waves:   3241
 k-point ** :  0.50000.44440.4167  plane waves:   3244
 k-point ** :  0.47220.47220.4167  plane waves:   3242
 k-point ** :  0.50000.47220.4167  plane waves:   3240
 k-point ** :  0.50000.50000.4167  plane waves:   3244
 k-point ** :  0.44440.44440.4444  plane waves:   3241
 k-point ** :  0.47220.44440.4444  plane waves:   3243
 k-point ** :  0.50000.44440.4444  plane waves:   3244
 k-point ** :  0.47220.47220.4444  plane waves:   3240
 k-point ** :  0.50000.47220.4444  plane waves:   3240
 k-point ** :  0.50000.50000.4444  plane waves:   3236
 k-point ** :  0.47220.47220.4722  plane waves:   3229
 k-point ** :  0.50000.47220.4722  plane waves:   3226
 k-point ** :  0.50000.50000.4722  plane waves:   3220
 k-point ** :  0.50000.50000.5000  plane waves:   3184

 maximum and minimum number of plane-waves per node :   3294  3184

 maximum number of plane-waves:   3294
 maximal index in each direction:
   IXMAX=  9   IYMAX=  9   IZMAX=  9
   IXMIN= -9   IYMIN= -9   IZMIN= -9

 NGX is ok and might be reduce to  38
 NGY is ok and might be reduce to  38
 NGZ is ok and might be reduce to  38

 parallel 3dFFT wavefunction:
    minimum data exchange during FFTs selected (reduces bandwidth)
 parallel 3dFFT charge:
    minimum data exchange during FFTs selected (reduces bandwidth)

Broyden mixing: mesh for mixing (old mesh)
   NGX = 19   NGY = 19   NGZ = 19
  (NGX  = 80   NGY  = 80   NGZ  = 80)
 gives a total of   6859 points
 initial charge density was supplied:
 charge density of overlapping atoms calculated
 number of electron   44.0000000 magnetization
 keeping initial charge density in first step

 Maximum index for augmentation-charges        48307 (set IRDMAX)

 First call to EWALD:  gamma=   0.497
 Maximum number of real-space cells 3x 3x 3
 Maximum number of reciprocal cells 3x 3x 3

----------------------------------------- Iteration    1(   1)  ---------------------------------------

 eigenvalue-minimisations  : 88656
 total energy-change (2. order) : 0.3614568E+03  (-0.3130239E+04)
 number of electron   44.0000000 magnetization
 augmentation part    44.0000000 magnetization

 Free energy of the ion-electron system (eV)
  alpha Z        PSCENC =       451.52129045
  Ewald energy   TEWEN  =     -4482.79967884
  -1/2 Hartree   DENC   =     -1271.91561579
  -V(xc)+E(xc)   XCENC  =       176.10109441
  PAW double counting   =      4328.20916945    -4904.30802700
  entropy T*S    EENTRO =        -0.00005918
  eigenvalues    EBANDS =       500.72933367
  atomic energy  EATOM  =      5563.91924406
  free energy    TOTEN  =       361.45675122 eV

  energy without entropy =      361.45681040  energy(sigma->0) =      361.45678081

[...]

 eigenvalue-minimisations  : 85216
 total energy-change (2. order) :-0.3506021E+03  (-0.3318227E+03)
 number of electron   44.0000000 magnetization
 augmentation part    44.0000000 magnetization

[...]

 Broyden mixing:
  rms(total) = 0.14051E+01    rms(broyden)= 0.14051E+01
  rms(prec ) = 0.33835E+01
  weight for this iteration     100.00

[...]

 eigenvalues of (default mixing * dielectric matrix)
  average eigenvalue GAMMA=   0.7137
  0.7137

[...]

 eigenvalue-minimisations  :103488
 total energy-change (2. order) : 0.7196238E-02  (-0.7627745E-03)
 number of electron   44.0000002 magnetization
 augmentation part    28.7090418 magnetization

[...]

 eigenvalue-minimisations  : 52688
 total energy-change (2. order) : 0.2174056E-07  (-0.1192062E-09)
 number of electron   44.0000002 magnetization
 augmentation part    28.7122602 magnetization

 Broyden mixing:
  rms(total) = 0.32976E-05    rms(broyden)= 0.32976E-05
  rms(prec ) = 0.81891E-05
  weight for this iteration     100.00

 eigenvalues of (default mixing * dielectric matrix)
  average eigenvalue GAMMA=   1.6010
  2.7590  2.7590  2.6276  2.4688  1.0474  1.0474  0.9626  0.9626  0.6851  0.6907

[...]

----------------------------------------- Iteration    1(  16)  ---------------------------------------

 eigenvalue-minimisations  : 50824
 total energy-change (2. order) :-0.5717993E-08  (-0.9908879E-11)
 number of electron   44.0000002 magnetization
 augmentation part    28.7122602 magnetization

 Free energy of the ion-electron system (eV)
  alpha Z        PSCENC =       451.52129045
  Ewald energy   TEWEN  =     -4482.79967884
  -1/2 Hartree   DENC   =     -1182.24490671
  -V(xc)+E(xc)   XCENC  =       171.63049479
  PAW double counting   =      4421.37312310    -5001.32889549
  entropy T*S    EENTRO =        -0.00007570
  eigenvalues    EBANDS =        43.13721742
  atomic energy  EATOM  =      5563.91924406
  free energy    TOTEN  =       -14.79218691 eV

  energy without entropy =      -14.79211121  energy(sigma->0) =      -14.79214906

 average (electrostatic) potential at core
  the test charge radii are     1.0053
  (the norm of the test charge is              1.0000)
       1 -39.6579       2 -39.6579       3 -39.6579       4 -39.6579

 E-fermi :   4.1795     XC(G=0): -13.0517     alpha+bet :-10.0493
   add alpha+bet to get absolut eigen values

 k-point   1 :       0.0000    0.0000    0.0000
  band No.  band energies     occupation
      1      -5.5116      2.00000
      2      -0.9879      2.00000
      3      -0.9879      2.00000
      4      -0.9879      2.00000
      5      -0.5075      2.00000
      6      -0.5075      2.00000
      7      -0.5075      2.00000
      8       0.9790      2.00000
      9       0.9790      2.00000
     10       0.9790      2.00000
     11       1.8635      2.00000
     12       1.8635      2.00000
     13       2.4503      2.00000
     14       2.4503      2.00000
     15       2.4503      2.00000
     16       2.6151      2.00000
     17       2.6151      2.00000
     18       2.6151      2.00000
     19       2.6151      2.00000
     20       2.6151      2.00000
     21       2.6151      2.00000
     22       5.6478      0.00000
     23       5.6478      0.00000
     24       5.6478      0.00000
     25      11.5885      0.00000
     26      11.5885      0.00000
     27      11.5885      0.00000
     28      17.6840      0.00000
     29      17.6840      0.00000
     30      17.6840      0.00000
     31      17.6840      0.00000
     32      17.6840      0.00000

[...]

 k-point *** :       0.5000    0.5000    0.5000
  band No.  band energies     occupation
      1      -1.1728      2.00000
      2      -1.1728      2.00000
      3      -1.1728      2.00000
      4      -1.1728      2.00000
      5       0.9459      2.00000
      6       0.9459      2.00000
      7       0.9459      2.00000
      8       0.9459      2.00000
      9       0.9459      2.00000
     10       0.9459      2.00000
     11       0.9459      2.00000
     12       0.9459      2.00000
     13       2.4654      2.00000
     14       2.4654      2.00000
     15       2.4654      2.00000
     16       2.4654      2.00000
     17       2.4654      2.00000
     18       2.4654      2.00000
     19       2.4654      2.00000
     20       2.4654      2.00000
     21       3.0438      2.00000
     22       3.0438      2.00000
     23       3.0438      2.00000
     24       3.0438      2.00000
     25       8.1360      0.00000
     26       8.1360      0.00000
     27       8.1360      0.00000
     28       8.1360      0.00000
     29      25.9959      0.00000
     30      25.9959      0.00000
     31      25.9959      0.00000
     32      25.9959      0.00000

 soft charge-density along one line, spin component           1
         0         1         2         3         4         5         6         7         8         9
 total charge-density along one line

------------------------ aborting loop because EDIFF is reached ----------------------------------------

  FREE ENERGIE OF THE ION-ELECTRON SYSTEM (eV)
  free  energy   TOTEN  =       -14.792187 eV

  energy  without entropy=      -14.792111  energy(sigma->0) =      -14.792149

  FORCE on cell =-STRESS in cart. coord.  units (eV/reduce length):
  Direction    X        Y        Z        XY       YZ       ZX
  Alpha Z    451.52    451.52    451.52
  Ewald    -1494.27  -1494.27  -1494.27     -0.00     -0.00     -0.00
  Hartree    394.08    394.08    394.08      0.00     -0.00     -0.00
  E(xc)     -251.07   -251.07   -251.07      0.00      0.00      0.00
  Local      503.97    503.97    503.97     -0.00      0.00      0.00
  n-local   -139.42   -145.58   -146.84      0.36      1.85      0.65
  augment    226.29    226.29    226.29     -0.00     -0.00     -0.00
  Kinetic    324.11    315.16    309.17     -3.25     -0.18     -1.52
  Total        2.73      2.73      2.73     -0.00      0.00      0.00
  in kB       96.77     96.77     96.77     -0.00      0.00      0.00

 VOLUME and BASIS-vectors are now :
  energy-cutoff  :     1000.00
  volume of cell :       45.27
      direct lattice vectors                 reciprocal lattice vectors
     3.564087741  0.000000000  0.000000000     0.280576707  0.000000000  0.000000000
     0.000000000  3.564087741  0.000000000     0.000000000  0.280576707  0.000000000
     0.000000000  0.000000000  3.564087741     0.000000000  0.000000000  0.280576707

  length of vectors
     3.564087741  3.564087741  3.564087741     0.280576707  0.280576707  0.280576707

 FORCES acting on ions
    electron-ion (+dipol)            ewald-force                    non-local-force                 convergence-correction
   0.436E-13 0.197E-13 0.122E-13   -.159E-13 -.260E-13 0.640E-14   0.198E-25 -.194E-25 -.400E-25   -.888E-13 -.103E-12 -.115E-12
   -.160E-12 -.100E-11 -.404E-11   -.957E-14 -.125E-13 0.642E-14   -.194E-25 0.000E+00 0.614E-25   0.149E-13 0.419E-13 -.867E-13
   -.159E-12 0.176E-13 -.492E-11   0.201E-13 0.128E-13 -.705E-14   0.145E-25 -.646E-26 -.969E-26   0.112E-13 -.124E-12 0.797E-13
   0.437E-13 -.174E-12 -.193E-12   0.328E-14 0.263E-13 -.703E-14   0.129E-25 -.646E-26 -.323E-26   -.845E-13 0.645E-13 0.582E-13
   -.231E-12 -.114E-11 -.914E-11   -.201E-14 0.565E-15 -.127E-14   0.279E-25 -.323E-25 0.848E-26   -.147E-12 -.121E-12 -.643E-13

 POSITION                                       TOTAL-FORCE (eV/Angst)
      0.00000      0.00000      0.00000         0.000000     -0.000000      0.000000
      1.78204      1.78204      0.00000         0.000000     -0.000000     -0.000000
      1.78204      0.00000      1.78204         0.000000      0.000000      0.000000
      0.00000      1.78204      1.78204         0.000000      0.000000      0.000000
    total drift:                               -0.000000     -0.000000     -0.000000

 mean value of Nose-termostat <S>:     1.000 mean value of <T> :     0.000
 mean temperature <T/S>/<1/S>  :     0.000