 vasp.4.6.28 25Jul05 complex
 executed on             LinuxIFC date 2017.01.14  03:53:04

 INCAR:
 POTCAR:   PAW_PBE Cu 05Jan2001
 POTCAR:   PAW_PBE Cu 05Jan2001
   VRHFIN =Cu: d10 p1

   TITEL  = PAW_PBE Cu 05Jan2001
   POMASS =   63.546; ZVAL   =   11.000    mass and valenz
   ENMAX  =  273.214; ENMIN  =  204.910 eV
   QCUT   =   -4.481; QGAM   =    8.962    optimization parameters

   Description
     l     E      TYP  RCUT    TYP  RCUT
     2   .000     23  2.300
     2   .000     23  2.300
     0   .000     23  2.300
     0   .000     23  2.300
     1  -.200     23  2.300
     1   .000     23  2.300
     3   .000      7   .000

 PAW_PBE Cu 05Jan2001                   :

 POSCAR: Cu
  positions in direct lattice
  velocities in cartesian coordinates

 ion  position               nearest neighbor table
   1  0.000  0.000  0.000-   2 2.49   3 2.49   4 2.49   3 2.49   4 2.49   2 2.49   4 2.49   4 2.49
                             2 2.49   3 2.49   3 2.49   2 2.49
   2  0.500  0.500  0.000-   1 2.49   3 2.49   4 2.49   3 2.49   4 2.49   1 2.49   3 2.49   3 2.49
                             1 2.49   4 2.49   4 2.49   1 2.49
   3  0.500  0.000  0.500-   1 2.49   2 2.49   4 2.49   1 2.49   2 2.49   2 2.49   4 2.49   2 2.49
                             1 2.49   4 2.49   1 2.49   4 2.49
   4  0.000  0.500  0.500-   1 2.49   2 2.49   3 2.49   1 2.49   2 2.49   1 2.49   3 2.49   1 2.49
                             2 2.49   3 2.49   2 2.49   3 2.49

  LATTYP: Found a simple cubic cell.
 ALAT       =     3.5277194984

  Lattice vectors:

 A1 = (   3.5277194984,   0.0000000000,   0.0000000000)
 A2 = (   0.0000000000,   3.5277194984,   0.0000000000)
 A3 = (   0.0000000000,   0.0000000000,   3.5277194984)
 Subroutine PRICEL returns following result:

  LATTYP: Found a face centered cubic cell.
 ALAT       =     3.5277194984

  Lattice vectors:

 A1 = (   1.7638597492,   1.7638597492,   0.0000000000)
 A2 = (   1.7638597492,   0.0000000000,  -1.7638597492)
 A3 = (   0.0000000000,   1.7638597492,  -1.7638597492)

   4 primitive cells build up your supercell.

Analysis of symmetry for initial positions (statically):

 Routine SETGRP: Setting up the symmetry group for a
 simple cubic supercell.

 Subroutine GETGRP returns: Found 48 space group operations
 (whereof 48 operations were pure point group operations)
 out of a pool of 48 trial point group operations.

The static configuration has the point symmetry O_h .

Analysis of symmetry for dynamics (positions and initial velocities):

 Subroutine DYNSYM returns: Found 48 space group operations
 (whereof 48 operations were pure point group operations)
 out of a pool of 48 trial space group operations
 (whereof 48 operations were pure point group operations)
 and found also     4 'primitive' translations

The dynamic configuration has the point symmetry O_h .

 KPOINTS: Automatic mesh

Automatic generation of k-mesh.

 Subroutine IBZKPT returns following result:

 Found   1330 irreducible k-points:

 Following reciprocal coordinates:
            Coordinates               Weight
  0.000000  0.000000  0.000000      1.000000
  0.027778  0.000000  0.000000      6.000000
  0.055556  0.000000  0.000000      6.000000
  0.083333  0.000000  0.000000      6.000000
  0.111111  0.000000  0.000000      6.000000
  0.138889  0.000000  0.000000      6.000000
  0.166667  0.000000  0.000000      6.000000
  0.194444  0.000000  0.000000      6.000000
  0.222222  0.000000  0.000000      6.000000
  0.250000  0.000000  0.000000      6.000000
  0.277778  0.000000  0.000000      6.000000
  0.305556  0.000000  0.000000      6.000000
  0.333333  0.000000  0.000000      6.000000
  0.361111  0.000000  0.000000      6.000000
  0.388889  0.000000  0.000000      6.000000
  0.416667  0.000000  0.000000      6.000000
  0.444444  0.000000  0.000000      6.000000
  0.472222  0.000000  0.000000      6.000000
  0.500000  0.000000  0.000000      3.000000
  0.027778  0.027778  0.000000     12.000000
  0.055556  0.027778  0.000000     24.000000
  0.083333  0.027778  0.000000     24.000000
  0.111111  0.027778  0.000000     24.000000
  0.138889  0.027778  0.000000     24.000000
  0.166667  0.027778  0.000000     24.000000
  0.194444  0.027778  0.000000     24.000000
  0.222222  0.027778  0.000000     24.000000
  0.250000  0.027778  0.000000     24.000000
  0.277778  0.027778  0.000000     24.000000
  0.305556  0.027778  0.000000     24.000000
  0.333333  0.027778  0.000000     24.000000
  0.361111  0.027778  0.000000     24.000000
  0.388889  0.027778  0.000000     24.000000
  0.416667  0.027778  0.000000     24.000000
  0.444444  0.027778  0.000000     24.000000
  0.472222  0.027778  0.000000     24.000000
  0.500000  0.027778  0.000000     12.000000
  0.055556  0.055556  0.000000     12.000000
  0.083333  0.055556  0.000000     24.000000
  0.111111  0.055556  0.000000     24.000000
  0.138889  0.055556  0.000000     24.000000
  0.166667  0.055556  0.000000     24.000000
  0.194444  0.055556  0.000000     24.000000
  0.222222  0.055556  0.000000     24.000000
  0.250000  0.055556  0.000000     24.000000
  0.277778  0.055556  0.000000     24.000000
  0.305556  0.055556  0.000000     24.000000
  0.333333  0.055556  0.000000     24.000000
  0.361111  0.055556  0.000000     24.000000
  0.388889  0.055556  0.000000     24.000000
  0.416667  0.055556  0.000000     24.000000
  0.444444  0.055556  0.000000     24.000000
  0.472222  0.055556  0.000000     24.000000
  0.500000  0.055556  0.000000     12.000000
  0.083333  0.083333  0.000000     12.000000
  0.111111  0.083333  0.000000     24.000000
  0.138889  0.083333  0.000000     24.000000
  0.166667  0.083333  0.000000     24.000000
  0.194444  0.083333  0.000000     24.000000
  0.222222  0.083333  0.000000     24.000000
[...]
  0.472222  0.444444  0.416667     48.000000
  0.500000  0.444444  0.416667     24.000000
  0.472222  0.472222  0.416667     24.000000
  0.500000  0.472222  0.416667     24.000000
  0.500000  0.500000  0.416667      6.000000
  0.444444  0.444444  0.444444      8.000000
  0.472222  0.444444  0.444444     24.000000
  0.500000  0.444444  0.444444     12.000000
  0.472222  0.472222  0.444444     24.000000
  0.500000  0.472222  0.444444     24.000000
  0.500000  0.500000  0.444444      6.000000
  0.472222  0.472222  0.472222      8.000000
  0.500000  0.472222  0.472222     12.000000
  0.500000  0.500000  0.472222      6.000000
  0.500000  0.500000  0.500000      1.000000

 Following cartesian coordinates:
            Coordinates               Weight
  0.000000  0.000000  0.000000      1.000000
  0.007638  0.000000  0.000000      6.000000
  0.015276  0.000000  0.000000      6.000000
  0.022914  0.000000  0.000000      6.000000
  0.030552  0.000000  0.000000      6.000000
  0.038190  0.000000  0.000000      6.000000
  0.045828  0.000000  0.000000      6.000000
  0.053465  0.000000  0.000000      6.000000
  0.061103  0.000000  0.000000      6.000000
  0.068741  0.000000  0.000000      6.000000
  0.076379  0.000000  0.000000      6.000000
  0.084017  0.000000  0.000000      6.000000
  0.091655  0.000000  0.000000      6.000000
  0.099293  0.000000  0.000000      6.000000
  0.106931  0.000000  0.000000      6.000000
  0.114569  0.000000  0.000000      6.000000
  0.122207  0.000000  0.000000      6.000000
  0.129845  0.000000  0.000000      6.000000
  0.137483  0.000000  0.000000      3.000000
  0.007638  0.007638  0.000000     12.000000
  0.015276  0.007638  0.000000     24.000000
  0.022914  0.007638  0.000000     24.000000
  0.030552  0.007638  0.000000     24.000000
  0.038190  0.007638  0.000000     24.000000
  0.045828  0.007638  0.000000     24.000000
  0.053465  0.007638  0.000000     24.000000
  0.061103  0.007638  0.000000     24.000000
  0.068741  0.007638  0.000000     24.000000
  0.076379  0.007638  0.000000     24.000000
  0.084017  0.007638  0.000000     24.000000
  0.091655  0.007638  0.000000     24.000000
  0.099293  0.007638  0.000000     24.000000
  0.106931  0.007638  0.000000     24.000000
  0.114569  0.007638  0.000000     24.000000
  0.122207  0.007638  0.000000     24.000000
  0.129845  0.007638  0.000000     24.000000
  0.137483  0.007638  0.000000     12.000000
  0.015276  0.015276  0.000000     12.000000
  0.022914  0.015276  0.000000     24.000000
  0.030552  0.015276  0.000000     24.000000
  0.038190  0.015276  0.000000     24.000000
  0.045828  0.015276  0.000000     24.000000
  0.053465  0.015276  0.000000     24.000000
  0.061103  0.015276  0.000000     24.000000
  0.068741  0.015276  0.000000     24.000000
  0.076379  0.015276  0.000000     24.000000
  0.084017  0.015276  0.000000     24.000000
  0.091655  0.015276  0.000000     24.000000
  0.099293  0.015276  0.000000     24.000000
  0.106931  0.015276  0.000000     24.000000
  0.114569  0.015276  0.000000     24.000000
  0.122207  0.015276  0.000000     24.000000
  0.129845  0.015276  0.000000     24.000000
  0.137483  0.015276  0.000000     12.000000
  0.022914  0.022914  0.000000     12.000000
  0.030552  0.022914  0.000000     24.000000
  0.038190  0.022914  0.000000     24.000000
  0.045828  0.022914  0.000000     24.000000
  0.053465  0.022914  0.000000     24.000000
  0.061103  0.022914  0.000000     24.000000
[...]
  0.129845  0.122207  0.114569     48.000000
  0.137483  0.122207  0.114569     24.000000
  0.129845  0.129845  0.114569     24.000000
  0.137483  0.129845  0.114569     24.000000
  0.137483  0.137483  0.114569      6.000000
  0.122207  0.122207  0.122207      8.000000
  0.129845  0.122207  0.122207     24.000000
  0.137483  0.122207  0.122207     12.000000
  0.129845  0.129845  0.122207     24.000000
  0.137483  0.129845  0.122207     24.000000
  0.137483  0.137483  0.122207      6.000000
  0.129845  0.129845  0.129845      8.000000
  0.137483  0.129845  0.129845     12.000000
  0.137483  0.137483  0.129845      6.000000
  0.137483  0.137483  0.137483      1.000000

 I would recommend the setting:
   dimension x,y,z NGX =    36 NGY =   36 NGZ =   36
 SYSTEM =  unknown system
 POSCAR =  Cu

 Startparameter for this run:
   NWRITE =      2    write-flag & timer
   PREC   = accura    medium, high low
   ISTART =      0    job   : 0-new  1-cont  2-samecut
   ICHARG =      2    charge: 1-file 2-atom 10-const
   ISPIN  =      1    spin polarized calculation?
   LNONCOLLINEAR =      F non collinear calculations
   LSORBIT =      F    spin-orbit coupling
   INIWAV =      1    electr: 0-lowe 1-rand  2-diag
   LASPH  =      F    aspherical Exc in radial PAW
   METAGGA=      F    non-selfconsistent MetaGGA calc.

 Electronic Relaxation 1
   ENCUT  = 1000.0 eV  73.50 Ry    8.57 a.u.   9.10  9.10  9.10*2*pi/ulx,y,z
   ENINI  = 1000.0     initial cutoff
   ENAUG  =  516.5 eV  augmentation charge cutoff
   NELM   =     60;   NELMIN=  2; NELMDL=  0     # of ELM steps
   EDIFF  = 0.1E-07   stopping-criterion for ELM
   LREAL  =      F    real-space projection
   LCOMPAT=      F    compatible to vasp.4.4
   LREAL_COMPAT= F    compatible to vasp.4.5.1-3
   GGA_COMPAT  = T    GGA compatible to vasp.4.4-vasp.4.6
   LMAXPAW     = -100 max onsite density
   LMAXMIX     =    2 max onsite mixed and CHGCAR
[...]
 k-point 26 :  0.19440.02780.0000  plane waves:   3138
 k-point 27 :  0.22220.02780.0000  plane waves:   3140
 k-point 28 :  0.25000.02780.0000  plane waves:   3143
 k-point 29 :  0.27780.02780.0000  plane waves:   3144
 k-point 30 :  0.30560.02780.0000  plane waves:   3152
 k-point 31 :  0.33330.02780.0000  plane waves:   3146
 k-point 32 :  0.36110.02780.0000  plane waves:   3136
 k-point 33 :  0.38890.02780.0000  plane waves:   3144
 k-point 34 :  0.41670.02780.0000  plane waves:   3157
 k-point 35 :  0.44440.02780.0000  plane waves:   3157
 k-point 36 :  0.47220.02780.0000  plane waves:   3169
 k-point 37 :  0.50000.02780.0000  plane waves:   3174
 k-point 38 :  0.05560.05560.0000  plane waves:   3135
 k-point 39 :  0.08330.05560.0000  plane waves:   3137
 k-point 40 :  0.11110.05560.0000  plane waves:   3134
 k-point 41 :  0.13890.05560.0000  plane waves:   3133
 k-point 42 :  0.16670.05560.0000  plane waves:   3134
 k-point 43 :  0.19440.05560.0000  plane waves:   3140
 k-point 44 :  0.22220.05560.0000  plane waves:   3144
 k-point 45 :  0.25000.05560.0000  plane waves:   3147
 k-point 46 :  0.27780.05560.0000  plane waves:   3148
 k-point 47 :  0.30560.05560.0000  plane waves:   3152
 k-point 48 :  0.33330.05560.0000  plane waves:   3142
 k-point 49 :  0.36110.05560.0000  plane waves:   3141
 k-point 50 :  0.38890.05560.0000  plane waves:   3138
 k-point 51 :  0.41670.05560.0000  plane waves:   3153
 k-point 52 :  0.44440.05560.0000  plane waves:   3154
 k-point 53 :  0.47220.05560.0000  plane waves:   3162
 k-point 54 :  0.50000.05560.0000  plane waves:   3168
 k-point 55 :  0.08330.08330.0000  plane waves:   3133
 k-point 56 :  0.11110.08330.0000  plane waves:   3131
 k-point 57 :  0.13890.08330.0000  plane waves:   3130
 k-point 58 :  0.16670.08330.0000  plane waves:   3137
 k-point 59 :  0.19440.08330.0000  plane waves:   3136
 k-point 60 :  0.22220.08330.0000  plane waves:   3140
[...]
 k-point 85 :  0.50000.11110.0000  plane waves:   3164
 k-point 86 :  0.13890.13890.0000  plane waves:   3135
 k-point 87 :  0.16670.13890.0000  plane waves:   3144
 k-point 88 :  0.19440.13890.0000  plane waves:   3142
 k-point 89 :  0.22220.13890.0000  plane waves:   3146
 k-point 90 :  0.25000.13890.0000  plane waves:   3141
 k-point 91 :  0.27780.13890.0000  plane waves:   3139
 k-point 92 :  0.30560.13890.0000  plane waves:   3142
 k-point 93 :  0.33330.13890.0000  plane waves:   3143
 k-point 94 :  0.36110.13890.0000  plane waves:   3147
 k-point 95 :  0.38890.13890.0000  plane waves:   3151
 k-point 96 :  0.41670.13890.0000  plane waves:   3151
 k-point 97 :  0.44440.13890.0000  plane waves:   3150
 k-point 98 :  0.47220.13890.0000  plane waves:   3157
 k-point 99 :  0.50000.13890.0000  plane waves:   3164
 k-point ** :  0.16670.16670.0000  plane waves:   3159
 k-point ** :  0.19440.16670.0000  plane waves:   3150
 k-point ** :  0.22220.16670.0000  plane waves:   3140
 k-point ** :  0.25000.16670.0000  plane waves:   3137
 k-point ** :  0.27780.16670.0000  plane waves:   3143
 k-point ** :  0.30560.16670.0000  plane waves:   3140
 k-point ** :  0.33330.16670.0000  plane waves:   3137
 k-point ** :  0.36110.16670.0000  plane waves:   3146
 k-point ** :  0.38890.16670.0000  plane waves:   3145
 k-point ** :  0.41670.16670.0000  plane waves:   3152
 k-point ** :  0.44440.16670.0000  plane waves:   3150
 k-point ** :  0.47220.16670.0000  plane waves:   3152
 k-point ** :  0.50000.16670.0000  plane waves:   3162
 k-point ** :  0.19440.19440.0000  plane waves:   3147
 k-point ** :  0.22220.19440.0000  plane waves:   3149
 k-point ** :  0.25000.19440.0000  plane waves:   3147
 k-point ** :  0.27780.19440.0000  plane waves:   3147
 k-point ** :  0.30560.19440.0000  plane waves:   3140
 k-point ** :  0.33330.19440.0000  plane waves:   3147
 k-point ** :  0.36110.19440.0000  plane waves:   3149
 k-point ** :  0.38890.19440.0000  plane waves:   3141
 k-point ** :  0.41670.19440.0000  plane waves:   3147
 k-point ** :  0.44440.19440.0000  plane waves:   3158
 k-point ** :  0.47220.19440.0000  plane waves:   3153
 k-point ** :  0.50000.19440.0000  plane waves:   3158
 k-point ** :  0.22220.22220.0000  plane waves:   3155
 k-point ** :  0.25000.22220.0000  plane waves:   3159
 k-point ** :  0.27780.22220.0000  plane waves:   3155
 k-point ** :  0.30560.22220.0000  plane waves:   3150
 k-point ** :  0.33330.22220.0000  plane waves:   3150
 k-point ** :  0.36110.22220.0000  plane waves:   3153
 k-point ** :  0.38890.22220.0000  plane waves:   3143
 k-point ** :  0.41670.22220.0000  plane waves:   3153
 k-point ** :  0.44440.22220.0000  plane waves:   3153
 k-point ** :  0.47220.22220.0000  plane waves:   3155
 k-point ** :  0.50000.22220.0000  plane waves:   3146
 k-point ** :  0.25000.25000.0000  plane waves:   3171
 k-point ** :  0.27780.25000.0000  plane waves:   3153
 k-point ** :  0.30560.25000.0000  plane waves:   3158
 k-point ** :  0.33330.25000.0000  plane waves:   3157
 k-point ** :  0.36110.25000.0000  plane waves:   3151
 k-point ** :  0.38890.25000.0000  plane waves:   3147
 k-point ** :  0.41670.25000.0000  plane waves:   3158
 k-point ** :  0.44440.25000.0000  plane waves:   3151
 k-point ** :  0.47220.25000.0000  plane waves:   3153
 k-point ** :  0.50000.25000.0000  plane waves:   3134
 k-point ** :  0.27780.27780.0000  plane waves:   3153
 k-point ** :  0.30560.27780.0000  plane waves:   3156
 k-point ** :  0.33330.27780.0000  plane waves:   3153
 k-point ** :  0.36110.27780.0000  plane waves:   3155
 k-point ** :  0.38890.27780.0000  plane waves:   3155
 k-point ** :  0.41670.27780.0000  plane waves:   3150
 k-point ** :  0.44440.27780.0000  plane waves:   3158
 k-point ** :  0.47220.27780.0000  plane waves:   3151
 k-point ** :  0.50000.27780.0000  plane waves:   3148
 k-point ** :  0.30560.30560.0000  plane waves:   3157
 k-point ** :  0.33330.30560.0000  plane waves:   3150
 k-point ** :  0.36110.30560.0000  plane waves:   3160
 k-point ** :  0.38890.30560.0000  plane waves:   3155
 k-point ** :  0.41670.30560.0000  plane waves:   3155
[...]
 k-point ** :  0.47220.44440.4167  plane waves:   3148
 k-point ** :  0.50000.44440.4167  plane waves:   3148
 k-point ** :  0.47220.47220.4167  plane waves:   3148
 k-point ** :  0.50000.47220.4167  plane waves:   3146
 k-point ** :  0.50000.50000.4167  plane waves:   3148
 k-point ** :  0.44440.44440.4444  plane waves:   3148
 k-point ** :  0.47220.44440.4444  plane waves:   3148
 k-point ** :  0.50000.44440.4444  plane waves:   3146
 k-point ** :  0.47220.47220.4444  plane waves:   3148
 k-point ** :  0.50000.47220.4444  plane waves:   3148
 k-point ** :  0.50000.50000.4444  plane waves:   3148
 k-point ** :  0.47220.47220.4722  plane waves:   3148
 k-point ** :  0.50000.47220.4722  plane waves:   3146
 k-point ** :  0.50000.50000.4722  plane waves:   3148
 k-point ** :  0.50000.50000.5000  plane waves:   3112

 maximum and minimum number of plane-waves per node :   3178  3112

 maximum number of plane-waves:   3178
 maximal index in each direction:
   IXMAX=  9   IYMAX=  9   IZMAX=  9
   IXMIN= -9   IYMIN= -9   IZMIN= -9

 WARNING: wrap around error must be expected set NGX to  38
 WARNING: wrap around error must be expected set NGY to  38
 WARNING: wrap around error must be expected set NGZ to  38

 parallel 3dFFT wavefunction:
    minimum data exchange during FFTs selected (reduces bandwidth)
 parallel 3dFFT charge:
    minimum data exchange during FFTs selected (reduces bandwidth)

Broyden mixing: mesh for mixing (old mesh)
   NGX = 19   NGY = 19   NGZ = 19
  (NGX  = 72   NGY  = 72   NGZ  = 72)
 gives a total of   6859 points
 initial charge density was supplied:
 charge density of overlapping atoms calculated
 number of electron   44.0000000 magnetization
 keeping initial charge density in first step

 Maximum index for augmentation-charges        36099 (set IRDMAX)

 First call to EWALD:  gamma=   0.502
 Maximum number of real-space cells 3x 3x 3
 Maximum number of reciprocal cells 3x 3x 3

----------------------------------------- Iteration    1(   1)  ---------------------------------------

 eigenvalue-minimisations  : 89280
 total energy-change (2. order) : 0.3610059E+03  (-0.3129369E+04)
 number of electron   44.0000000 magnetization
 augmentation part    44.0000000 magnetization

 Free energy of the ion-electron system (eV)
  alpha Z        PSCENC =       465.63032587
  Ewald energy   TEWEN  =     -4529.01410852
  -1/2 Hartree   DENC   =     -1248.22485504
  -V(xc)+E(xc)   XCENC  =       176.47070909
  PAW double counting   =      4328.20916945    -4904.30802700
  entropy T*S    EENTRO =        -0.00003182
  eigenvalues    EBANDS =       508.32345208
  atomic energy  EATOM  =      5563.91924406
  free energy    TOTEN  =       361.00587816 eV

  energy without entropy =      361.00590998  energy(sigma->0) =      361.00589407

[...]

 eigenvalue-minimisations  : 85256
 total energy-change (2. order) :-0.3498812E+03  (-0.3305954E+03)
 number of electron   44.0000000 magnetization
 augmentation part    44.0000000 magnetization

[...]

 Broyden mixing:
  rms(total) = 0.14096E+01    rms(broyden)= 0.14096E+01
  rms(prec ) = 0.34044E+01
  weight for this iteration     100.00

[...]

 eigenvalues of (default mixing * dielectric matrix)
  average eigenvalue GAMMA=   0.7280
  0.7280

[...]

 eigenvalue-minimisations  :105864
 total energy-change (2. order) : 0.6740687E-02  (-0.6088641E-03)
 number of electron   44.0000002 magnetization
 augmentation part    28.6785663 magnetization

[...]

 eigenvalue-minimisations  : 52712
 total energy-change (2. order) : 0.1698845E-07  (-0.5557323E-10)
 number of electron   44.0000002 magnetization
 augmentation part    28.6825658 magnetization

 Broyden mixing:
  rms(total) = 0.35658E-05    rms(broyden)= 0.35658E-05
  rms(prec ) = 0.90225E-05
  weight for this iteration     100.00

 eigenvalues of (default mixing * dielectric matrix)
  average eigenvalue GAMMA=   1.6254
  2.9537  2.6506  2.6506  2.4792  0.6917  1.0399  1.0399  0.9620  0.9620  0.8241

[...]

----------------------------------------- Iteration    1(  16)  ---------------------------------------

 eigenvalue-minimisations  : 50776
 total energy-change (2. order) :-0.6044502E-08  (-0.6238045E-11)
 number of electron   44.0000002 magnetization
 augmentation part    28.6825658 magnetization

 Free energy of the ion-electron system (eV)
  alpha Z        PSCENC =       465.63032587
  Ewald energy   TEWEN  =     -4529.01410852
  -1/2 Hartree   DENC   =     -1157.65185630
  -V(xc)+E(xc)   XCENC  =       171.92730549
  PAW double counting   =      4443.41609478    -5024.10778735
  entropy T*S    EENTRO =        -0.00007163
  eigenvalues    EBANDS =        51.19675873
  atomic energy  EATOM  =      5563.91924406
  free energy    TOTEN  =       -14.68409487 eV

  energy without entropy =      -14.68402324  energy(sigma->0) =      -14.68405905

 average (electrostatic) potential at core
  the test charge radii are     1.0053
  (the norm of the test charge is              1.0000)
       1 -39.4527       2 -39.4527       3 -39.4527       4 -39.4527

 E-fermi :   4.4703     XC(G=0): -13.2361     alpha+bet :-10.3634
   add alpha+bet to get absolut eigen values

 k-point   1 :       0.0000    0.0000    0.0000
  band No.  band energies     occupation
      1      -5.4744      2.00000
      2      -0.9021      2.00000
      3      -0.9021      2.00000
      4      -0.9021      2.00000
      5      -0.4003      2.00000
      6      -0.4003      2.00000
      7      -0.4003      2.00000
      8       1.1590      2.00000
      9       1.1590      2.00000
     10       1.1590      2.00000
     11       2.0867      2.00000
     12       2.0867      2.00000
     13       2.7020      2.00000
     14       2.7020      2.00000
     15       2.7020      2.00000
     16       2.8749      2.00000
     17       2.8749      2.00000
     18       2.8749      2.00000
     19       2.8749      2.00000
     20       2.8749      2.00000
     21       2.8749      2.00000
     22       5.9080      0.00000
     23       5.9080      0.00000
     24       5.9080      0.00000
     25      12.0965      0.00000
     26      12.0965      0.00000
     27      12.0965      0.00000
     28      18.2222      0.00000
     29      18.2222      0.00000
     30      18.2222      0.00000
     31      18.2222      0.00000
     32      18.2222      0.00000

[...]

 k-point *** :       0.5000    0.5000    0.5000
  band No.  band energies     occupation
      1      -1.0766      2.00000
      2      -1.0766      2.00000
      3      -1.0766      2.00000
      4      -1.0766      2.00000
      5       1.1232      2.00000
      6       1.1232      2.00000
      7       1.1232      2.00000
      8       1.1232      2.00000
      9       1.1232      2.00000
     10       1.1232      2.00000
     11       1.1232      2.00000
     12       1.1232      2.00000
     13       2.7178      2.00000
     14       2.7178      2.00000
     15       2.7178      2.00000
     16       2.7178      2.00000
     17       2.7178      2.00000
     18       2.7178      2.00000
     19       2.7178      2.00000
     20       2.7178      2.00000
     21       3.2324      2.00000
     22       3.2324      2.00000
     23       3.2324      2.00000
     24       3.2324      2.00000
     25       8.5837      0.00000
     26       8.5837      0.00000
     27       8.5837      0.00000
     28       8.5837      0.00000
     29      26.5392      0.00000
     30      26.5392      0.00000
     31      26.5392      0.00000
     32      26.5392      0.00000

 soft charge-density along one line, spin component           1
         0         1         2         3         4         5         6         7         8         9
 total charge-density along one line

------------------------ aborting loop because EDIFF is reached ----------------------------------------

  FREE ENERGIE OF THE ION-ELECTRON SYSTEM (eV)
  free  energy   TOTEN  =       -14.684095 eV

  energy  without entropy=      -14.684023  energy(sigma->0) =      -14.684059

  FORCE on cell =-STRESS in cart. coord.  units (eV/reduce length):
  Direction    X        Y        Z        XY       YZ       ZX
  Alpha Z    465.63    465.63    465.63
  Ewald    -1509.67  -1509.67  -1509.67      0.00     -0.00     -0.00
  Hartree    385.88    385.88    385.88     -0.00     -0.00     -0.00
  E(xc)     -251.36   -251.36   -251.36      0.00     -0.00     -0.00
  Local      512.83    512.83    512.83      0.00      0.00     -0.00
  n-local   -137.92   -144.17   -145.48      0.37      1.84      0.65
  augment    226.35    226.35    226.35     -0.00     -0.00     -0.00
  Kinetic    325.24    316.20    310.10     -3.31     -0.24     -1.56
  Total        4.32      4.32      4.32      0.00     -0.00     -0.00
  in kB      157.76    157.76    157.76      0.00     -0.00     -0.00

 VOLUME and BASIS-vectors are now :
  energy-cutoff  :     1000.00
  volume of cell :       43.90
      direct lattice vectors                 reciprocal lattice vectors
     3.527719498  0.000000000  0.000000000     0.283469250  0.000000000  0.000000000
     0.000000000  3.527719498  0.000000000     0.000000000  0.283469250  0.000000000
     0.000000000  0.000000000  3.527719498     0.000000000  0.000000000  0.283469250

  length of vectors
     3.527719498  3.527719498  3.527719498     0.283469250  0.283469250  0.283469250

 FORCES acting on ions
    electron-ion (+dipol)            ewald-force                    non-local-force                 convergence-correction
   -.616E-13 -.580E-13 -.962E-13   -.226E-13 0.551E-14 0.308E-14   0.140E-25 -.680E-26 0.105E-25   0.327E-14 -.295E-13 -.421E-13
   0.489E-12 0.348E-11 0.215E-11   0.258E-13 0.359E-14 0.326E-14   -.343E-26 -.396E-26 -.552E-26   -.159E-13 0.131E-13 -.696E-13
   0.489E-12 -.603E-13 0.730E-11   -.134E-13 -.536E-14 -.181E-14   -.548E-26 -.220E-26 0.119E-26   -.147E-13 -.262E-13 -.936E-15
   -.614E-13 0.482E-12 0.456E-12   0.113E-13 -.728E-14 -.164E-14   0.719E-26 -.252E-25 -.150E-25   0.168E-13 0.805E-14 0.966E-14
   0.855E-12 0.384E-11 0.981E-11   0.110E-14 -.353E-14 0.290E-14   0.123E-25 -.382E-25 -.888E-26   -.106E-13 -.346E-13 -.103E-12

 POSITION                                       TOTAL-FORCE (eV/Angst)
      0.00000      0.00000      0.00000         0.000000     -0.000000     -0.000000
      1.76386      1.76386      0.00000        -0.000000      0.000000     -0.000000
      1.76386      0.00000      1.76386         0.000000      0.000000     -0.000000
      0.00000      1.76386      1.76386         0.000000     -0.000000      0.000000
    total drift:                                0.000000      0.000000      0.000000

 mean value of Nose-termostat <S>:     1.000 mean value of <T> :     0.000
 mean temperature <T/S>/<1/S>  :     0.000