 vasp.4.6.28 25Jul05 complex
 executed on             LinuxIFC date 2016.01.16  20:34:07

 INCAR:
 POTCAR:   PAW_PBE Cu 05Jan2001
 POTCAR:   PAW_PBE Cu 05Jan2001
   VRHFIN =Cu: d10 p1

   TITEL  = PAW_PBE Cu 05Jan2001
   POMASS =   63.546; ZVAL   =   11.000    mass and valenz
   ENMAX  =  273.214; ENMIN  =  204.910 eV
   QCUT   =   -4.481; QGAM   =    8.962    optimization parameters

   Description
     l     E      TYP  RCUT    TYP  RCUT
     2   .000     23  2.300
     2   .000     23  2.300
     0   .000     23  2.300
     0   .000     23  2.300
     1  -.200     23  2.300
     1   .000     23  2.300
     3   .000      7   .000

 PAW_PBE Cu 05Jan2001                   :

 POSCAR: Cu
  positions in direct lattice

 ion  position               nearest neighbor table
   1  0.000  0.000  0.000-   9 2.52  10 2.52  11 2.52  12 2.52  17 2.52  18 2.52  21 2.52  22 2.52
                            25 2.52  27 2.52  29 2.52  31 2.52
   2  0.500  0.000  0.000-   9 2.52  10 2.52  11 2.52  12 2.52  17 2.52  18 2.52  21 2.52  22 2.52
                            26 2.52  28 2.52  30 2.52  32 2.52
   3  0.000  0.500  0.000-   9 2.52  10 2.52  11 2.52  12 2.52  19 2.52  20 2.52  23 2.52  24 2.52
                            25 2.52  27 2.52  29 2.52  31 2.52
   4  0.500  0.500  0.000-   9 2.52  10 2.52  11 2.52  12 2.52  19 2.52  20 2.52  23 2.52  24 2.52
                            26 2.52  28 2.52  30 2.52  32 2.52
   5  0.000  0.000  0.500-  13 2.52  14 2.52  15 2.52  16 2.52  17 2.52  18 2.52  21 2.52  22 2.52
                            25 2.52  27 2.52  29 2.52  31 2.52
   6  0.500  0.000  0.500-  13 2.52  14 2.52  15 2.52  16 2.52  17 2.52  18 2.52  21 2.52  22 2.52
                            26 2.52  28 2.52  30 2.52  32 2.52
   7  0.000  0.500  0.500-  13 2.52  14 2.52  15 2.52  16 2.52  19 2.52  20 2.52  23 2.52  24 2.52
                            25 2.52  27 2.52  29 2.52  31 2.52
   8  0.500  0.500  0.500-  13 2.52  14 2.52  15 2.52  16 2.52  19 2.52  20 2.52  23 2.52  24 2.52
                            26 2.52  28 2.52  30 2.52  32 2.52
   9  0.250  0.250  0.000-   1 2.52   2 2.52   3 2.52   4 2.52  17 2.52  19 2.52  21 2.52  23 2.52
                            25 2.52  26 2.52  29 2.52  30 2.52
  10  0.750  0.250  0.000-   1 2.52   2 2.52   3 2.52   4 2.52  18 2.52  20 2.52  22 2.52  24 2.52
                            25 2.52  26 2.52  29 2.52  30 2.52
  11  0.250  0.750  0.000-   1 2.52   2 2.52   3 2.52   4 2.52  17 2.52  19 2.52  21 2.52  23 2.52
                            27 2.52  28 2.52  31 2.52  32 2.52
  12  0.750  0.750  0.000-   1 2.52   2 2.52   3 2.52   4 2.52  18 2.52  20 2.52  22 2.52  24 2.52
                            27 2.52  28 2.52  31 2.52  32 2.52
  13  0.250  0.250  0.500-   5 2.52   6 2.52   7 2.52   8 2.52  17 2.52  19 2.52  21 2.52  23 2.52
                            25 2.52  26 2.52  29 2.52  30 2.52
  14  0.750  0.250  0.500-   5 2.52   6 2.52   7 2.52   8 2.52  18 2.52  20 2.52  22 2.52  24 2.52
                            25 2.52  26 2.52  29 2.52  30 2.52
  15  0.250  0.750  0.500-   5 2.52   6 2.52   7 2.52   8 2.52  17 2.52  19 2.52  21 2.52  23 2.52
                            27 2.52  28 2.52  31 2.52  32 2.52
  16  0.750  0.750  0.500-   5 2.52   6 2.52   7 2.52   8 2.52  18 2.52  20 2.52  22 2.52  24 2.52
                            27 2.52  28 2.52  31 2.52  32 2.52
  17  0.250  0.000  0.250-   1 2.52   2 2.52   5 2.52   6 2.52   9 2.52  11 2.52  13 2.52  15 2.52
                            25 2.52  26 2.52  27 2.52  28 2.52
  18  0.750  0.000  0.250-   1 2.52   2 2.52   5 2.52   6 2.52  10 2.52  12 2.52  14 2.52  16 2.52
                            25 2.52  26 2.52  27 2.52  28 2.52
  19  0.250  0.500  0.250-   3 2.52   4 2.52   7 2.52   8 2.52   9 2.52  11 2.52  13 2.52  15 2.52
                            25 2.52  26 2.52  27 2.52  28 2.52
  20  0.750  0.500  0.250-   3 2.52   4 2.52   7 2.52   8 2.52  10 2.52  12 2.52  14 2.52  16 2.52
                            25 2.52  26 2.52  27 2.52  28 2.52
  21  0.250  0.000  0.750-   1 2.52   2 2.52   5 2.52   6 2.52   9 2.52  11 2.52  13 2.52  15 2.52
                            29 2.52  30 2.52  31 2.52  32 2.52
  22  0.750  0.000  0.750-   1 2.52   2 2.52   5 2.52   6 2.52  10 2.52  12 2.52  14 2.52  16 2.52
                            29 2.52  30 2.52  31 2.52  32 2.52
  23  0.250  0.500  0.750-   3 2.52   4 2.52   7 2.52   8 2.52   9 2.52  11 2.52  13 2.52  15 2.52
                            29 2.52  30 2.52  31 2.52  32 2.52
  24  0.750  0.500  0.750-   3 2.52   4 2.52   7 2.52   8 2.52  10 2.52  12 2.52  14 2.52  16 2.52
                            29 2.52  30 2.52  31 2.52  32 2.52
  25  0.000  0.250  0.250-   1 2.52   3 2.52   5 2.52   7 2.52   9 2.52  10 2.52  13 2.52  14 2.52
                            17 2.52  18 2.52  19 2.52  20 2.52
  26  0.500  0.250  0.250-   2 2.52   4 2.52   6 2.52   8 2.52   9 2.52  10 2.52  13 2.52  14 2.52
                            17 2.52  18 2.52  19 2.52  20 2.52
  27  0.000  0.750  0.250-   1 2.52   3 2.52   5 2.52   7 2.52  11 2.52  12 2.52  15 2.52  16 2.52
                            17 2.52  18 2.52  19 2.52  20 2.52
  28  0.500  0.750  0.250-   2 2.52   4 2.52   6 2.52   8 2.52  11 2.52  12 2.52  15 2.52  16 2.52
                            17 2.52  18 2.52  19 2.52  20 2.52
  29  0.000  0.250  0.750-   1 2.52   3 2.52   5 2.52   7 2.52   9 2.52  10 2.52  13 2.52  14 2.52
                            21 2.52  22 2.52  23 2.52  24 2.52
  30  0.500  0.250  0.750-   2 2.52   4 2.52   6 2.52   8 2.52   9 2.52  10 2.52  13 2.52  14 2.52
                            21 2.52  22 2.52  23 2.52  24 2.52
  31  0.000  0.750  0.750-   1 2.52   3 2.52   5 2.52   7 2.52  11 2.52  12 2.52  15 2.52  16 2.52
                            21 2.52  22 2.52  23 2.52  24 2.52
  32  0.500  0.750  0.750-   2 2.52   4 2.52   6 2.52   8 2.52  11 2.52  12 2.52  15 2.52  16 2.52
                            21 2.52  22 2.52  23 2.52  24 2.52

  LATTYP: Found a simple cubic cell.
 ALAT       =     7.1273749910

  Lattice vectors:

 A1 = (   7.1273749910,   0.0000000000,   0.0000000000)
 A2 = (   0.0000000000,   7.1273749910,   0.0000000000)
 A3 = (   0.0000000000,   0.0000000000,   7.1273749910)
 Subroutine PRICEL returns following result:

  LATTYP: Found a face centered cubic cell.
 ALAT       =     3.5636874955

  Lattice vectors:

 A1 = (   1.7818437477,   1.7818437477,   0.0000000000)
 A2 = (   1.7818437477,   0.0000000000,  -1.7818437477)
 A3 = (   0.0000000000,   1.7818437477,  -1.7818437477)

  32 primitive cells build up your supercell.

Analysis of symmetry for initial positions (statically):

 Routine SETGRP: Setting up the symmetry group for a
 simple cubic supercell.

 Subroutine GETGRP returns: Found 48 space group operations
 (whereof 48 operations were pure point group operations)
 out of a pool of 48 trial point group operations.

The static configuration has the point symmetry O_h .

Analysis of symmetry for dynamics (positions and initial velocities):

 Subroutine DYNSYM returns: Found 48 space group operations
 (whereof 48 operations were pure point group operations)
 out of a pool of 48 trial space group operations
 (whereof 48 operations were pure point group operations)
 and found also    32 'primitive' translations

The dynamic configuration has the point symmetry O_h .

 KPOINTS: Automatic mesh

Automatic generation of k-mesh.
 generate k-points for:   7   7   7

 Subroutine IBZKPT returns following result:

 Found     20 irreducible k-points:

 Following reciprocal coordinates:
            Coordinates               Weight
  0.000000  0.000000  0.000000      1.000000
  0.142857  0.000000  0.000000      6.000000
  0.285714  0.000000  0.000000      6.000000
  0.428571  0.000000  0.000000      6.000000
  0.142857  0.142857  0.000000     12.000000
  0.285714  0.142857  0.000000     24.000000
  0.428571  0.142857  0.000000     24.000000
  0.285714  0.285714  0.000000     12.000000
  0.428571  0.285714  0.000000     24.000000
  0.428571  0.428571  0.000000     12.000000
  0.142857  0.142857  0.142857      8.000000
  0.285714  0.142857  0.142857     24.000000
  0.428571  0.142857  0.142857     24.000000
  0.285714  0.285714  0.142857     24.000000
  0.428571  0.285714  0.142857     48.000000
  0.428571  0.428571  0.142857     24.000000
  0.285714  0.285714  0.285714      8.000000
  0.428571  0.285714  0.285714     24.000000
  0.428571  0.428571  0.285714     24.000000
  0.428571  0.428571  0.428571      8.000000

 Following cartesian coordinates:
            Coordinates               Weight
  0.000000  0.000000  0.000000      1.000000
  0.020043  0.000000  0.000000      6.000000
  0.040087  0.000000  0.000000      6.000000
  0.060130  0.000000  0.000000      6.000000
  0.020043  0.020043  0.000000     12.000000
  0.040087  0.020043  0.000000     24.000000
  0.060130  0.020043  0.000000     24.000000
  0.040087  0.040087  0.000000     12.000000
  0.060130  0.040087  0.000000     24.000000
  0.060130  0.060130  0.000000     12.000000
  0.020043  0.020043  0.020043      8.000000
  0.040087  0.020043  0.020043     24.000000
  0.060130  0.020043  0.020043     24.000000
  0.040087  0.040087  0.020043     24.000000
  0.060130  0.040087  0.020043     48.000000
  0.060130  0.060130  0.020043     24.000000
  0.040087  0.040087  0.040087      8.000000
  0.060130  0.040087  0.040087     24.000000
  0.060130  0.060130  0.040087     24.000000
  0.060130  0.060130  0.060130      8.000000

 I would recommend the setting:
   dimension x,y,z NGX =    52 NGY =   52 NGZ =   52
 SYSTEM =  unknown system
 POSCAR =  Cu

 Startparameter for this run:
   NWRITE =      2    write-flag & timer
   PREC   = accura    medium, high low
   ISTART =      0    job   : 0-new  1-cont  2-samecut
   ICHARG =      2    charge: 1-file 2-atom 10-const
   ISPIN  =      1    spin polarized calculation?
   LNONCOLLINEAR =      F non collinear calculations
   LSORBIT =      F    spin-orbit coupling
   INIWAV =      1    electr: 0-lowe 1-rand  2-diag
   LASPH  =      F    aspherical Exc in radial PAW
   METAGGA=      F    non-selfconsistent MetaGGA calc.

 Electronic Relaxation 1
   ENCUT  =  500.0 eV  36.75 Ry    6.06 a.u.  12.99 12.99 12.99*2*pi/ulx,y,z
   ENINI  =  500.0     initial cutoff
   ENAUG  =  516.5 eV  augmentation charge cutoff
   NELM   =     60;   NELMIN=  2; NELMDL= -5     # of ELM steps
   EDIFF  = 0.1E-07   stopping-criterion for ELM
   LREAL  =      F    real-space projection
   LCOMPAT=      F    compatible to vasp.4.4
   LREAL_COMPAT= F    compatible to vasp.4.5.1-3
   GGA_COMPAT  = T    GGA compatible to vasp.4.4-vasp.4.6
   LMAXPAW     = -100 max onsite density
   LMAXMIX     =    2 max onsite mixed and CHGCAR
   VOSKOWN=      0    Vosko Wilk Nusair interpolation
   ROPT   =    0.00000
 Ionic relaxation
   EDIFFG = 0.1E-06   stopping-criterion for IOM
   NSW    =      0    number of steps for IOM
   NBLOCK =      1;   KBLOCK =      1    inner block; outer block
   IBRION =     -1    ionic relax: 0-MD 1-quasi-New 2-CG
   NFREE  =      0    steps in history (QN), initial steepest desc. (CG)
   ISIF   =      2    stress and relaxation
[...]
  average eigenvalue GAMMA=   0.7169
  0.7169

[...]

 eigenvalue-minimisations  :  4792
 total energy-change (2. order) : 0.1569424E-07  (-0.6597441E-10)
 number of electron  352.0000019 magnetization
 augmentation part   229.6982343 magnetization

 Broyden mixing:
  rms(total) = 0.62336E-05    rms(broyden)= 0.62335E-05
  rms(prec ) = 0.86550E-05
  weight for this iteration     100.00

 eigenvalues of (default mixing * dielectric matrix)
  average eigenvalue GAMMA=   1.6632
  3.1473  2.5952  2.5952  2.5769  2.4849  0.6998  1.0242  1.0242  1.0037  0.9828
  0.9828  0.8415

[...]

----------------------------------------- Iteration    1(  18)  ---------------------------------------

 eigenvalue-minimisations  :  4776
 total energy-change (2. order) :-0.2328306E-09  (-0.1530162E-11)
 number of electron  352.0000019 magnetization
 augmentation part   229.6982343 magnetization

 Free energy of the ion-electron system (eV)
  alpha Z        PSCENC =      3613.38753142
  Ewald energy   TEWEN  =    -35866.42906434
  -1/2 Hartree   DENC   =     -9455.76073065
  -V(xc)+E(xc)   XCENC  =      1373.10043241
  PAW double counting   =     35370.82816214   -40011.23692909
  entropy T*S    EENTRO =        -0.00076277
  eigenvalues    EBANDS =       346.46323813
  atomic energy  EATOM  =     44511.25856501
  free energy    TOTEN  =      -118.38955773 eV

  energy without entropy =     -118.38879496  energy(sigma->0) =     -118.38917634

 average (electrostatic) potential at core
  the test charge radii are     1.0053
  (the norm of the test charge is              1.0000)
       1 -39.6540       2 -39.6540       3 -39.6540       4 -39.6540       5 -39.6540
       6 -39.6540       7 -39.6540       8 -39.6540       9 -39.6540      10 -39.6540
      11 -39.6540      12 -39.6540      13 -39.6540      14 -39.6540      15 -39.6540
      16 -39.6540      17 -39.6540      18 -39.6540      19 -39.6540      20 -39.6540
      21 -39.6540      22 -39.6540      23 -39.6540      24 -39.6540      25 -39.6540
      26 -39.6540      27 -39.6540      28 -39.6540      29 -39.6540      30 -39.6540
      31 -39.6540      32 -39.6540

 E-fermi :   4.1844     XC(G=0): -13.0541     alpha+bet :-10.0527
   add alpha+bet to get absolut eigen values

 k-point   1 :       0.0000    0.0000    0.0000
  band No.  band energies     occupation
      1      -5.5112      2.00000
      2      -2.6762      2.00000
      3      -2.6762      2.00000
      4      -2.6762      2.00000
      5      -2.6762      2.00000
      6      -2.6762      2.00000
      7      -2.6762      2.00000
      8      -1.1703      2.00000
      9      -1.1703      2.00000
     10      -1.1703      2.00000
     11      -1.1703      2.00000
     12      -0.9854      2.00000
     13      -0.9854      2.00000
     14      -0.9854      2.00000
     15      -0.7481      2.00000
     16      -0.7481      2.00000
     17      -0.7481      2.00000
     18      -0.7481      2.00000
     19      -0.7481      2.00000
     20      -0.7481      2.00000
     21      -0.7481      2.00000
     22      -0.7481      2.00000
     23      -0.7481      2.00000
     24      -0.7481      2.00000
     25      -0.7481      2.00000
     26      -0.7481      2.00000
     27      -0.5043      2.00000
     28      -0.5043      2.00000
     29      -0.5043      2.00000
     30      -0.2065      2.00000
     31      -0.2065      2.00000
     32      -0.2065      2.00000
     33      -0.2065      2.00000
     34      -0.2065      2.00000
     35      -0.2065      2.00000
     36       0.2179      2.00000
     37       0.2179      2.00000
     38       0.2179      2.00000
     39       0.2179      2.00000
     40       0.2179      2.00000
     41       0.2179      2.00000
     42       0.4418      2.00000
     43       0.4418      2.00000
     44       0.4418      2.00000
     45       0.4418      2.00000
     46       0.4418      2.00000
     47       0.4418      2.00000
     48       0.4418      2.00000
     49       0.4418      2.00000
     50       0.4418      2.00000
     51       0.4418      2.00000
     52       0.4418      2.00000
     53       0.4418      2.00000
     54       0.4460      2.00000
     55       0.4460      2.00000
     56       0.4460      2.00000
     57       0.4460      2.00000
     58       0.4460      2.00000
     59       0.4460      2.00000
     60       0.4460      2.00000
[...]
    202      10.5521      0.00000
    203      11.5953      0.00000
    204      11.5953      0.00000
    205      11.5953      0.00000
    206      12.7036      0.00000
    207      12.7036      0.00000
    208      12.7036      0.00000
    209      12.7036      0.00000
    210      12.7036      0.00000
    211      12.7036      0.00000
    212      13.4244      0.00000
    213      13.4244      0.00000
    214      13.4244      0.00000
    215      13.4244      0.00000
    216      13.4244      0.00000

[...]

 k-point  20 :       0.4286    0.4286    0.4286
  band No.  band energies     occupation
      1      -3.8662      2.00000
      2      -3.4749      2.00000
      3      -3.4749      2.00000
      4      -3.4749      2.00000
      5      -3.1063      2.00000
      6      -3.1063      2.00000
      7      -3.1063      2.00000
      8      -2.7694      2.00000
      9      -0.6629      2.00000
     10      -0.6629      2.00000
     11      -0.6629      2.00000
     12      -0.5652      2.00000
     13      -0.5652      2.00000
     14      -0.5652      2.00000
     15      -0.5652      2.00000
     16      -0.5652      2.00000
     17      -0.5652      2.00000
     18      -0.5529      2.00000
     19      -0.5529      2.00000
     20      -0.5529      2.00000
     21      -0.5402      2.00000
     22      -0.5402      2.00000
     23      -0.5402      2.00000
     24      -0.4264      2.00000
     25      -0.4264      2.00000
     26      -0.4264      2.00000
     27      -0.4264      2.00000
     28      -0.4264      2.00000
     29      -0.4264      2.00000
     30      -0.3868      2.00000
     31      -0.3868      2.00000
     32      -0.3868      2.00000
     33      -0.0687      2.00000
     34      -0.0687      2.00000
     35      -0.0687      2.00000
     36       0.0340      2.00000
     37       0.0340      2.00000
     38       0.0340      2.00000
     39       0.0340      2.00000
     40       0.0340      2.00000
     41       0.0340      2.00000
     42       0.0435      2.00000
     43       0.0435      2.00000
     44       0.0435      2.00000
     45       0.1377      2.00000
     46       0.1377      2.00000
     47       0.1377      2.00000
     48       0.1603      2.00000
     49       0.1603      2.00000
     50       0.1603      2.00000
     51       0.1603      2.00000
     52       0.1603      2.00000
     53       0.1603      2.00000
     54       0.2829      2.00000
     55       0.2829      2.00000
     56       0.2829      2.00000
     57       0.6934      2.00000
     58       0.6934      2.00000
     59       0.6934      2.00000
     60       0.6988      2.00000
[...]
    202      10.9254      0.00000
    203      10.9254      0.00000
    204      10.9254      0.00000
    205      11.4095      0.00000
    206      11.4095      0.00000
    207      11.4095      0.00000
    208      11.4095      0.00000
    209      11.4095      0.00000
    210      11.4095      0.00000
    211      12.0571      0.00000
    212      12.0571      0.00000
    213      12.0571      0.00000
    214      12.5518      0.00000
    215      12.5518      0.00000
    216      12.5518      0.00000

 soft charge-density along one line, spin component           1
         0         1         2         3         4         5         6         7         8         9
 total charge-density along one line

------------------------ aborting loop because EDIFF is reached ----------------------------------------

  FREE ENERGIE OF THE ION-ELECTRON SYSTEM (eV)
  free  energy   TOTEN  =      -118.389558 eV

  energy  without entropy=     -118.388795  energy(sigma->0) =     -118.389176

  FORCE on cell =-STRESS in cart. coord.  units (eV/reduce length):
  Direction    X        Y        Z        XY       YZ       ZX
  Alpha Z   3613.39   3613.39   3613.39
  Ewald   -11955.53 -11955.53 -11955.53     -0.00     -0.00     -0.00
  Hartree   3151.92   3151.92   3151.92     -0.00     -0.00     -0.00
  E(xc)    -2008.55  -2008.55  -2008.55     -0.00     -0.00     -0.00
  Local     4032.38   4032.38   4032.38     -0.00      0.00      0.00
  n-local  -1154.95  -1152.06  -1146.25      2.27     -0.12      1.02
  augment   1810.78   1810.78   1810.78     -0.00     -0.00     -0.00
  Kinetic   2526.52   2526.61   2532.95      0.41     -3.44     -0.47
  Total       21.99     21.99     21.99      0.00      0.00      0.00
  in kB       97.33     97.33     97.33      0.00      0.00      0.00

 VOLUME and BASIS-vectors are now :
  energy-cutoff  :      500.00
  volume of cell :      362.07
      direct lattice vectors                 reciprocal lattice vectors
     7.127374991  0.000000000  0.000000000     0.140304109  0.000000000  0.000000000
     0.000000000  7.127374991  0.000000000     0.000000000  0.140304109  0.000000000
     0.000000000  0.000000000  7.127374991     0.000000000  0.000000000  0.140304109

  length of vectors
     7.127374991  7.127374991  7.127374991     0.140304109  0.140304109  0.140304109

 FORCES acting on ions
    electron-ion (+dipol)            ewald-force                    non-local-force                 convergence-correction
   -.245E-12 -.195E-12 -.116E-12   -.266E-12 0.258E-13 0.551E-13   -.143E-24 0.614E-25 -.687E-26   0.730E-13 0.318E-13 -.167E-12
   0.933E-12 -.202E-12 0.406E-11   -.303E-12 -.506E-13 0.149E-12   0.452E-25 0.162E-26 0.263E-25   0.458E-13 0.971E-13 -.199E-12
   -.228E-12 0.905E-12 -.130E-12   -.254E-12 -.755E-13 0.105E-12   -.267E-25 -.148E-24 -.162E-26   0.345E-13 0.632E-14 -.226E-12
   0.920E-12 -.465E-11 0.317E-11   -.319E-12 -.346E-13 0.121E-12   0.412E-25 0.792E-25 0.210E-25   0.785E-13 -.681E-13 -.238E-12
   -.245E-12 -.160E-12 0.879E-12   -.277E-12 0.222E-13 0.657E-13   -.646E-26 0.724E-25 0.545E-25   0.771E-13 -.199E-13 0.683E-13
   0.937E-12 -.185E-12 -.497E-11   -.314E-12 -.222E-13 0.497E-13   -.111E-24 -.171E-24 -.116E-24   0.421E-13 0.319E-13 0.254E-15
   -.227E-12 0.872E-12 0.902E-12   -.282E-12 -.790E-13 0.657E-13   0.834E-25 -.103E-24 0.662E-25   0.356E-13 0.585E-13 -.505E-15
   0.921E-12 -.455E-11 -.459E-11   -.319E-12 -.622E-14 0.497E-13   -.122E-24 0.142E-24 -.975E-25   0.840E-13 -.745E-14 -.522E-13
   0.325E-12 -.249E-11 0.151E-11   -.480E-13 -.131E-12 0.622E-13   -.930E-25 0.856E-25 -.307E-25   -.544E-13 -.867E-13 -.225E-12
   0.150E-11 0.997E-13 -.688E-11   -.533E-14 -.336E-13 0.115E-12   0.598E-25 -.420E-25 -.426E-25   -.544E-13 -.651E-13 -.197E-12
   0.360E-12 0.428E-11 0.150E-11   -.639E-13 0.421E-14 0.149E-12   0.173E-24 -.961E-25 0.133E-25   -.137E-12 0.908E-13 -.225E-12
   0.146E-11 0.177E-10 -.587E-11   0.711E-14 -.438E-13 0.149E-12   -.767E-25 0.000E+00 -.129E-25   0.145E-13 0.212E-13 -.189E-12
   0.363E-12 0.309E-11 0.243E-11   -.586E-13 -.135E-12 0.144E-12   -.604E-25 0.662E-25 -.299E-25   -.127E-12 -.724E-13 -.596E-13
   0.146E-11 0.112E-10 -.255E-11   0.124E-13 -.904E-13 0.144E-12   0.977E-25 -.136E-24 -.309E-25   0.104E-13 -.359E-13 0.291E-13
   0.396E-12 -.123E-11 0.271E-11   -.355E-13 -.278E-13 0.497E-13   -.485E-26 -.630E-25 -.412E-25   -.201E-12 0.736E-13 -.195E-13
   0.143E-11 0.681E-11 -.339E-11   0.711E-14 -.722E-13 -.711E-14   -.921E-25 -.162E-26 0.218E-25   0.752E-13 0.438E-14 0.544E-13
   0.357E-12 -.199E-12 -.257E-11   0.533E-14 0.140E-12 -.588E-13   0.452E-25 0.364E-25 0.347E-25   -.118E-12 0.651E-13 -.325E-12
   0.146E-11 -.208E-12 -.101E-10   0.444E-13 0.835E-13 -.132E-12   0.517E-25 -.856E-25 -.234E-25   0.866E-14 0.237E-13 -.262E-12
   0.361E-12 0.788E-12 0.301E-11   0.533E-14 -.178E-14 -.123E-12   0.681E-25 0.501E-25 0.351E-25   -.118E-12 -.429E-14 -.362E-12
   0.146E-11 0.379E-11 0.109E-11   0.764E-13 0.112E-12 -.160E-12   -.780E-25 -.291E-25 -.430E-25   0.937E-14 0.442E-14 -.293E-12
   0.359E-12 -.205E-12 0.414E-11   -.711E-14 0.149E-12 -.124E-12   -.485E-26 0.646E-26 -.186E-25   -.138E-12 0.544E-13 0.119E-12
   0.146E-11 -.204E-12 0.122E-10   0.639E-13 0.355E-13 -.516E-13   -.654E-25 -.129E-25 -.477E-25   0.337E-13 0.195E-13 0.190E-12
   0.361E-12 0.111E-11 -.149E-11   -.711E-14 0.213E-13 -.675E-13   -.112E-24 -.711E-25 -.258E-25   -.135E-12 0.839E-14 0.586E-13
   0.146E-11 0.340E-11 0.134E-13   0.355E-13 0.782E-13 -.517E-13   0.614E-25 -.481E-25 0.121E-26   0.208E-13 0.170E-13 0.115E-12
   -.247E-12 0.306E-12 0.375E-12   0.305E-12 -.213E-13 -.605E-13   -.594E-25 -.565E-26 0.156E-25   0.696E-13 -.783E-13 -.285E-12
   0.936E-12 -.513E-11 -.918E-12   0.274E-12 -.211E-13 -.114E-12   0.222E-25 0.986E-25 0.404E-27   0.398E-13 -.718E-13 -.413E-12
   -.248E-12 0.150E-11 0.337E-12   0.305E-12 0.629E-13 -.148E-12   0.909E-26 -.436E-25 -.485E-25   0.607E-13 0.391E-13 -.214E-12
   0.941E-12 -.502E-11 -.519E-12   0.271E-12 0.628E-14 -.148E-12   0.788E-25 -.662E-25 0.446E-25   0.541E-13 0.402E-13 -.334E-12
   -.229E-12 0.323E-12 0.146E-11   0.313E-12 -.401E-13 -.133E-12   0.196E-25 0.905E-25 -.355E-25   0.476E-13 -.879E-13 0.134E-12
   0.920E-12 -.386E-11 -.180E-11   0.250E-12 0.169E-13 -.133E-12   -.129E-25 0.610E-25 -.312E-25   0.715E-13 -.661E-13 0.145E-12
   -.230E-12 0.148E-11 0.150E-11   0.285E-12 0.868E-13 -.391E-13   -.626E-26 -.856E-25 -.109E-24   0.375E-13 0.364E-13 0.938E-13
   0.923E-12 0.550E-11 0.960E-11   0.250E-12 -.267E-13 0.176E-13   0.126E-25 -.267E-25 -.102E-25   0.793E-13 0.389E-13 0.101E-12
   0.201E-10 0.346E-10 0.494E-11   -.448E-13 -.680E-13 -.592E-13   -.206E-24 -.383E-24 -.468E-24   0.222E-13 0.984E-13 -.318E-11

 POSITION                                       TOTAL-FORCE (eV/Angst)
      0.00000      0.00000      0.00000        -0.000000      0.000000      0.000000
      3.56369      0.00000      0.00000        -0.000000     -0.000000      0.000000
      0.00000      3.56369      0.00000         0.000000     -0.000000      0.000000
      3.56369      3.56369      0.00000        -0.000000      0.000000      0.000000
      0.00000      0.00000      3.56369         0.000000      0.000000     -0.000000
      3.56369      0.00000      3.56369         0.000000     -0.000000      0.000000
      0.00000      3.56369      3.56369        -0.000000      0.000000     -0.000000
      3.56369      3.56369      3.56369        -0.000000      0.000000     -0.000000
      1.78184      1.78184      0.00000        -0.000000     -0.000000      0.000000
      5.34553      1.78184      0.00000         0.000000      0.000000      0.000000
      1.78184      5.34553      0.00000         0.000000      0.000000     -0.000000
      5.34553      5.34553      0.00000        -0.000000      0.000000     -0.000000
      1.78184      1.78184      3.56369        -0.000000     -0.000000     -0.000000
      5.34553      1.78184      3.56369         0.000000     -0.000000     -0.000000
      1.78184      5.34553      3.56369        -0.000000     -0.000000     -0.000000
      5.34553      5.34553      3.56369        -0.000000      0.000000      0.000000
      1.78184      0.00000      1.78184         0.000000     -0.000000     -0.000000
      5.34553      0.00000      1.78184        -0.000000      0.000000     -0.000000
      1.78184      3.56369      1.78184         0.000000      0.000000     -0.000000
      5.34553      3.56369      1.78184         0.000000     -0.000000      0.000000
      1.78184      0.00000      5.34553        -0.000000     -0.000000      0.000000
      5.34553      0.00000      5.34553         0.000000     -0.000000      0.000000
      1.78184      3.56369      5.34553         0.000000     -0.000000      0.000000
      5.34553      3.56369      5.34553        -0.000000      0.000000     -0.000000
      0.00000      1.78184      1.78184        -0.000000     -0.000000      0.000000
      3.56369      1.78184      1.78184         0.000000      0.000000     -0.000000
      0.00000      5.34553      1.78184        -0.000000      0.000000     -0.000000
      3.56369      5.34553      1.78184        -0.000000      0.000000     -0.000000
      0.00000      1.78184      5.34553         0.000000      0.000000      0.000000
      3.56369      1.78184      5.34553        -0.000000     -0.000000      0.000000
      0.00000      5.34553      5.34553        -0.000000      0.000000      0.000000
      3.56369      5.34553      5.34553         0.000000     -0.000000      0.000000
    total drift:                                0.000000      0.000000      0.000000

 mean value of Nose-termostat <S>:     1.000 mean value of <T> :     0.000
 mean temperature <T/S>/<1/S>  :     0.000