 vasp.4.6.28 25Jul05 complex
 executed on             LinuxIFC date 2016.12.21  13:16:16

 INCAR:
 POTCAR:   PAW_PBE Ag 06Sep2000
 POTCAR:   PAW_PBE Ag 06Sep2000
   VRHFIN =Ag : s1 d10

   TITEL  = PAW_PBE Ag 06Sep2000
   POMASS =  107.868; ZVAL   =   11.000    mass and valenz
   ENMAX  =  249.846; ENMIN  =  187.385 eV
   QCUT   =   -4.285; QGAM   =    8.570    optimization parameters

   Description
     l     E      TYP  RCUT    TYP  RCUT
     2   .000     23  2.400
     2   .000     23  2.400
     0   .000     23  2.400
     0   .000     23  2.400
     1  -.200     23  2.400
     1  1.500     23  2.400
     3   .000      7   .000

 PAW_PBE Ag 06Sep2000                   :

 POSCAR: Ag
  positions in direct lattice
  velocities in cartesian coordinates

 ion  position               nearest neighbor table
   1  0.000  0.000  0.000-   2 2.94   3 2.94   4 2.94   3 2.94   4 2.94   2 2.94   4 2.94   4 2.94
                             2 2.94   3 2.94   3 2.94   2 2.94
   2  0.500  0.500  0.000-   1 2.94   3 2.94   4 2.94   3 2.94   4 2.94   1 2.94   3 2.94   3 2.94
                             1 2.94   4 2.94   4 2.94   1 2.94
   3  0.500  0.000  0.500-   1 2.94   2 2.94   4 2.94   1 2.94   2 2.94   2 2.94   4 2.94   2 2.94
                             1 2.94   4 2.94   1 2.94   4 2.94
   4  0.000  0.500  0.500-   1 2.94   2 2.94   3 2.94   1 2.94   2 2.94   1 2.94   3 2.94   1 2.94
                             2 2.94   3 2.94   2 2.94   3 2.94

  LATTYP: Found a simple cubic cell.
 ALAT       =     4.1636612106

  Lattice vectors:

 A1 = (   4.1636612106,   0.0000000000,   0.0000000000)
 A2 = (   0.0000000000,   4.1636612106,   0.0000000000)
 A3 = (   0.0000000000,   0.0000000000,   4.1636612106)
 Subroutine PRICEL returns following result:

  LATTYP: Found a face centered cubic cell.
 ALAT       =     4.1636612106

  Lattice vectors:

 A1 = (   2.0818306053,   2.0818306053,   0.0000000000)
 A2 = (   2.0818306053,   0.0000000000,  -2.0818306053)
 A3 = (   0.0000000000,   2.0818306053,  -2.0818306053)

   4 primitive cells build up your supercell.

Analysis of symmetry for initial positions (statically):

 Routine SETGRP: Setting up the symmetry group for a
 simple cubic supercell.

 Subroutine GETGRP returns: Found 48 space group operations
 (whereof 48 operations were pure point group operations)
 out of a pool of 48 trial point group operations.

The static configuration has the point symmetry O_h .

Analysis of symmetry for dynamics (positions and initial velocities):

 Subroutine DYNSYM returns: Found 48 space group operations
 (whereof 48 operations were pure point group operations)
 out of a pool of 48 trial space group operations
 (whereof 48 operations were pure point group operations)
 and found also     4 'primitive' translations

The dynamic configuration has the point symmetry O_h .

 KPOINTS: Automatic mesh

Automatic generation of k-mesh.
 generate k-points for:  12  12  12

 Subroutine IBZKPT returns following result:

 Found     84 irreducible k-points:

 Following reciprocal coordinates:
            Coordinates               Weight
  0.000000  0.000000  0.000000      1.000000
  0.083333  0.000000  0.000000      6.000000
  0.166667  0.000000  0.000000      6.000000
  0.250000  0.000000  0.000000      6.000000
  0.333333  0.000000  0.000000      6.000000
  0.416667  0.000000  0.000000      6.000000
  0.500000  0.000000  0.000000      3.000000
  0.083333  0.083333  0.000000     12.000000
  0.166667  0.083333  0.000000     24.000000
  0.250000  0.083333  0.000000     24.000000
  0.333333  0.083333  0.000000     24.000000
  0.416667  0.083333  0.000000     24.000000
  0.500000  0.083333  0.000000     12.000000
  0.166667  0.166667  0.000000     12.000000
  0.250000  0.166667  0.000000     24.000000
  0.333333  0.166667  0.000000     24.000000
  0.416667  0.166667  0.000000     24.000000
  0.500000  0.166667  0.000000     12.000000
  0.250000  0.250000  0.000000     12.000000
  0.333333  0.250000  0.000000     24.000000
  0.416667  0.250000  0.000000     24.000000
  0.500000  0.250000  0.000000     12.000000
  0.333333  0.333333  0.000000     12.000000
  0.416667  0.333333  0.000000     24.000000
  0.500000  0.333333  0.000000     12.000000
  0.416667  0.416667  0.000000     12.000000
  0.500000  0.416667  0.000000     12.000000
  0.500000  0.500000  0.000000      3.000000
  0.083333  0.083333  0.083333      8.000000
  0.166667  0.083333  0.083333     24.000000
  0.250000  0.083333  0.083333     24.000000
  0.333333  0.083333  0.083333     24.000000
  0.416667  0.083333  0.083333     24.000000
  0.500000  0.083333  0.083333     12.000000
  0.166667  0.166667  0.083333     24.000000
  0.250000  0.166667  0.083333     48.000000
  0.333333  0.166667  0.083333     48.000000
  0.416667  0.166667  0.083333     48.000000
  0.500000  0.166667  0.083333     24.000000
  0.250000  0.250000  0.083333     24.000000
  0.333333  0.250000  0.083333     48.000000
  0.416667  0.250000  0.083333     48.000000
  0.500000  0.250000  0.083333     24.000000
  0.333333  0.333333  0.083333     24.000000
  0.416667  0.333333  0.083333     48.000000
  0.500000  0.333333  0.083333     24.000000
  0.416667  0.416667  0.083333     24.000000
  0.500000  0.416667  0.083333     24.000000
  0.500000  0.500000  0.083333      6.000000
  0.166667  0.166667  0.166667      8.000000
  0.250000  0.166667  0.166667     24.000000
  0.333333  0.166667  0.166667     24.000000
  0.416667  0.166667  0.166667     24.000000
  0.500000  0.166667  0.166667     12.000000
  0.250000  0.250000  0.166667     24.000000
  0.333333  0.250000  0.166667     48.000000
  0.416667  0.250000  0.166667     48.000000
  0.500000  0.250000  0.166667     24.000000
  0.333333  0.333333  0.166667     24.000000
  0.416667  0.333333  0.166667     48.000000
[...]
  0.416667  0.333333  0.250000     48.000000
  0.500000  0.333333  0.250000     24.000000
  0.416667  0.416667  0.250000     24.000000
  0.500000  0.416667  0.250000     24.000000
  0.500000  0.500000  0.250000      6.000000
  0.333333  0.333333  0.333333      8.000000
  0.416667  0.333333  0.333333     24.000000
  0.500000  0.333333  0.333333     12.000000
  0.416667  0.416667  0.333333     24.000000
  0.500000  0.416667  0.333333     24.000000
  0.500000  0.500000  0.333333      6.000000
  0.416667  0.416667  0.416667      8.000000
  0.500000  0.416667  0.416667     12.000000
  0.500000  0.500000  0.416667      6.000000
  0.500000  0.500000  0.500000      1.000000

 Following cartesian coordinates:
            Coordinates               Weight
  0.000000  0.000000  0.000000      1.000000
  0.020014  0.000000  0.000000      6.000000
  0.040029  0.000000  0.000000      6.000000
  0.060043  0.000000  0.000000      6.000000
  0.080058  0.000000  0.000000      6.000000
  0.100072  0.000000  0.000000      6.000000
  0.120087  0.000000  0.000000      3.000000
  0.020014  0.020014  0.000000     12.000000
  0.040029  0.020014  0.000000     24.000000
  0.060043  0.020014  0.000000     24.000000
  0.080058  0.020014  0.000000     24.000000
  0.100072  0.020014  0.000000     24.000000
  0.120087  0.020014  0.000000     12.000000
  0.040029  0.040029  0.000000     12.000000
  0.060043  0.040029  0.000000     24.000000
  0.080058  0.040029  0.000000     24.000000
  0.100072  0.040029  0.000000     24.000000
  0.120087  0.040029  0.000000     12.000000
  0.060043  0.060043  0.000000     12.000000
  0.080058  0.060043  0.000000     24.000000
  0.100072  0.060043  0.000000     24.000000
  0.120087  0.060043  0.000000     12.000000
  0.080058  0.080058  0.000000     12.000000
  0.100072  0.080058  0.000000     24.000000
  0.120087  0.080058  0.000000     12.000000
  0.100072  0.100072  0.000000     12.000000
  0.120087  0.100072  0.000000     12.000000
  0.120087  0.120087  0.000000      3.000000
  0.020014  0.020014  0.020014      8.000000
  0.040029  0.020014  0.020014     24.000000
  0.060043  0.020014  0.020014     24.000000
  0.080058  0.020014  0.020014     24.000000
  0.100072  0.020014  0.020014     24.000000
  0.120087  0.020014  0.020014     12.000000
  0.040029  0.040029  0.020014     24.000000
  0.060043  0.040029  0.020014     48.000000
  0.080058  0.040029  0.020014     48.000000
  0.100072  0.040029  0.020014     48.000000
  0.120087  0.040029  0.020014     24.000000
  0.060043  0.060043  0.020014     24.000000
  0.080058  0.060043  0.020014     48.000000
  0.100072  0.060043  0.020014     48.000000
  0.120087  0.060043  0.020014     24.000000
  0.080058  0.080058  0.020014     24.000000
  0.100072  0.080058  0.020014     48.000000
  0.120087  0.080058  0.020014     24.000000
  0.100072  0.100072  0.020014     24.000000
  0.120087  0.100072  0.020014     24.000000
  0.120087  0.120087  0.020014      6.000000
  0.040029  0.040029  0.040029      8.000000
  0.060043  0.040029  0.040029     24.000000
  0.080058  0.040029  0.040029     24.000000
  0.100072  0.040029  0.040029     24.000000
  0.120087  0.040029  0.040029     12.000000
  0.060043  0.060043  0.040029     24.000000
  0.080058  0.060043  0.040029     48.000000
  0.100072  0.060043  0.040029     48.000000
  0.120087  0.060043  0.040029     24.000000
  0.080058  0.080058  0.040029     24.000000
  0.100072  0.080058  0.040029     48.000000
[...]
  0.100072  0.080058  0.060043     48.000000
  0.120087  0.080058  0.060043     24.000000
  0.100072  0.100072  0.060043     24.000000
  0.120087  0.100072  0.060043     24.000000
  0.120087  0.120087  0.060043      6.000000
  0.080058  0.080058  0.080058      8.000000
  0.100072  0.080058  0.080058     24.000000
  0.120087  0.080058  0.080058     12.000000
  0.100072  0.100072  0.080058     24.000000
  0.120087  0.100072  0.080058     24.000000
  0.120087  0.120087  0.080058      6.000000
  0.100072  0.100072  0.100072      8.000000
  0.120087  0.100072  0.100072     12.000000
  0.120087  0.120087  0.100072      6.000000
  0.120087  0.120087  0.120087      1.000000

 I would recommend the setting:
   dimension x,y,z NGX =    30 NGY =   30 NGZ =   30
 SYSTEM =  unknown system
 POSCAR =  Ag

 Startparameter for this run:
   NWRITE =      2    write-flag & timer
   PREC   = accura    medium, high low
   ISTART =      0    job   : 0-new  1-cont  2-samecut
   ICHARG =      2    charge: 1-file 2-atom 10-const
   ISPIN  =      1    spin polarized calculation?
   LNONCOLLINEAR =      F non collinear calculations
   LSORBIT =      F    spin-orbit coupling
   INIWAV =      1    electr: 0-lowe 1-rand  2-diag
   LASPH  =      F    aspherical Exc in radial PAW
   METAGGA=      F    non-selfconsistent MetaGGA calc.

 Electronic Relaxation 1
   ENCUT  =  500.0 eV  36.75 Ry    6.06 a.u.   7.59  7.59  7.59*2*pi/ulx,y,z
   ENINI  =  500.0     initial cutoff
   ENAUG  =  412.5 eV  augmentation charge cutoff
   NELM   =     60;   NELMIN=  2; NELMDL=  0     # of ELM steps
   EDIFF  = 0.1E-07   stopping-criterion for ELM
   LREAL  =      F    real-space projection
   LCOMPAT=      F    compatible to vasp.4.4
   LREAL_COMPAT= F    compatible to vasp.4.5.1-3
   GGA_COMPAT  = T    GGA compatible to vasp.4.4-vasp.4.6
   LMAXPAW     = -100 max onsite density
   LMAXMIX     =    2 max onsite mixed and CHGCAR
[...]
 k-point 30 :  0.16670.08330.0833  plane waves:   1837
 k-point 31 :  0.25000.08330.0833  plane waves:   1841
 k-point 32 :  0.33330.08330.0833  plane waves:   1845
 k-point 33 :  0.41670.08330.0833  plane waves:   1837
 k-point 34 :  0.50000.08330.0833  plane waves:   1838
 k-point 35 :  0.16670.16670.0833  plane waves:   1845
 k-point 36 :  0.25000.16670.0833  plane waves:   1846
 k-point 37 :  0.33330.16670.0833  plane waves:   1830
 k-point 38 :  0.41670.16670.0833  plane waves:   1832
 k-point 39 :  0.50000.16670.0833  plane waves:   1836
 k-point 40 :  0.25000.25000.0833  plane waves:   1840
 k-point 41 :  0.33330.25000.0833  plane waves:   1830
 k-point 42 :  0.41670.25000.0833  plane waves:   1835
 k-point 43 :  0.50000.25000.0833  plane waves:   1832
 k-point 44 :  0.33330.33330.0833  plane waves:   1834
 k-point 45 :  0.41670.33330.0833  plane waves:   1835
 k-point 46 :  0.50000.33330.0833  plane waves:   1832
 k-point 47 :  0.41670.41670.0833  plane waves:   1825
 k-point 48 :  0.50000.41670.0833  plane waves:   1830
 k-point 49 :  0.50000.50000.0833  plane waves:   1820
 k-point 50 :  0.16670.16670.1667  plane waves:   1845
 k-point 51 :  0.25000.16670.1667  plane waves:   1846
 k-point 52 :  0.33330.16670.1667  plane waves:   1842
 k-point 53 :  0.41670.16670.1667  plane waves:   1832
 k-point 54 :  0.50000.16670.1667  plane waves:   1810
 k-point 55 :  0.25000.25000.1667  plane waves:   1839
 k-point 56 :  0.33330.25000.1667  plane waves:   1837
 k-point 57 :  0.41670.25000.1667  plane waves:   1835
 k-point 58 :  0.50000.25000.1667  plane waves:   1828
 k-point 59 :  0.33330.33330.1667  plane waves:   1834
 k-point 60 :  0.41670.33330.1667  plane waves:   1819
[...]
 k-point 70 :  0.41670.33330.2500  plane waves:   1822
 k-point 71 :  0.50000.33330.2500  plane waves:   1826
 k-point 72 :  0.41670.41670.2500  plane waves:   1823
 k-point 73 :  0.50000.41670.2500  plane waves:   1818
 k-point 74 :  0.50000.50000.2500  plane waves:   1820
 k-point 75 :  0.33330.33330.3333  plane waves:   1830
 k-point 76 :  0.41670.33330.3333  plane waves:   1828
 k-point 77 :  0.50000.33330.3333  plane waves:   1822
 k-point 78 :  0.41670.41670.3333  plane waves:   1828
 k-point 79 :  0.50000.41670.3333  plane waves:   1824
 k-point 80 :  0.50000.50000.3333  plane waves:   1828
 k-point 81 :  0.41670.41670.4167  plane waves:   1832
 k-point 82 :  0.50000.41670.4167  plane waves:   1840
 k-point 83 :  0.50000.50000.4167  plane waves:   1844
 k-point 84 :  0.50000.50000.5000  plane waves:   1856

 maximum and minimum number of plane-waves per node :   1856  1810

 maximum number of plane-waves:   1856
 maximal index in each direction:
   IXMAX=  7   IYMAX=  7   IZMAX=  7
   IXMIN= -8   IYMIN= -8   IZMIN= -8

 WARNING: wrap around error must be expected set NGX to  32
 WARNING: wrap around error must be expected set NGY to  32
 WARNING: wrap around error must be expected set NGZ to  32

 parallel 3dFFT wavefunction:
    minimum data exchange during FFTs selected (reduces bandwidth)
 parallel 3dFFT charge:
    minimum data exchange during FFTs selected (reduces bandwidth)

Broyden mixing: mesh for mixing (old mesh)
   NGX = 15   NGY = 15   NGZ = 15
  (NGX  = 60   NGY  = 60   NGZ  = 60)
 gives a total of   3375 points
 initial charge density was supplied:
 charge density of overlapping atoms calculated
 number of electron   44.0000000 magnetization
 keeping initial charge density in first step

 Maximum index for augmentation-charges        35713 (set IRDMAX)

 First call to EWALD:  gamma=   0.426
 Maximum number of real-space cells 3x 3x 3
 Maximum number of reciprocal cells 3x 3x 3

----------------------------------------- Iteration    1(   1)  ---------------------------------------

 eigenvalue-minimisations  :  4728
 total energy-change (2. order) : 0.3924445E+03  (-0.2197755E+04)
 number of electron   44.0000000 magnetization
 augmentation part    44.0000000 magnetization

 Free energy of the ion-electron system (eV)
  alpha Z        PSCENC =       393.62463894
  Ewald energy   TEWEN  =     -3837.26979000
  -1/2 Hartree   DENC   =      -845.36342704
  -V(xc)+E(xc)   XCENC  =       -43.39807381
  PAW double counting   =      3482.67677651    -3297.07979946
  entropy T*S    EENTRO =        -0.00031859
  eigenvalues    EBANDS =       389.62163101
  atomic energy  EATOM  =      4149.63283719
  free energy    TOTEN  =       392.44447476 eV

  energy without entropy =      392.44479334  energy(sigma->0) =      392.44463405

[...]

 eigenvalue-minimisations  :  4756
 total energy-change (2. order) :-0.3920705E+03  (-0.3741801E+03)
 number of electron   44.0000000 magnetization
 augmentation part    44.0000000 magnetization

[...]

 Broyden mixing:
  rms(total) = 0.55776E+00    rms(broyden)= 0.55776E+00
  rms(prec ) = 0.13827E+01
  weight for this iteration     100.00

[...]

 eigenvalues of (default mixing * dielectric matrix)
  average eigenvalue GAMMA=   1.0583
  1.0583

[...]

 average (electrostatic) potential at core
  the test charge radii are     1.1249
  (the norm of the test charge is              1.0000)
       1 -41.6307       2 -41.6307       3 -41.6307       4 -41.6307

 E-fermi :   3.0940     XC(G=0): -11.8744     alpha+bet : -8.0690
   add alpha+bet to get absolut eigen values

 k-point   1 :       0.0000    0.0000    0.0000
  band No.  band energies     occupation
      1      -4.3312      2.00000
      2      -3.0801      2.00000
      3      -3.0801      2.00000
      4      -3.0801      2.00000
      5      -2.9621      2.00000
      6      -2.9621      2.00000
      7      -2.9621      2.00000
      8      -1.6046      2.00000
      9      -1.6046      2.00000
     10      -1.6046      2.00000
     11      -0.6683      2.00000
     12      -0.6683      2.00000
     13       0.0224      2.00000
     14       0.0224      2.00000
     15       0.0224      2.00000
     16       0.2392      2.00000
     17       0.2392      2.00000
     18       0.2392      2.00000
     19       0.2392      2.00000
     20       0.2392      2.00000
     21       0.2392      2.00000
     22       4.6975      0.00000
     23       4.6975      0.00000
     24       4.6975      0.00000
     25       9.3511      0.00000
     26       9.3511      0.00000
     27       9.3511      0.00000
     28      13.5734      0.00000

[...]

 soft charge-density along one line, spin component           1
         0         1         2         3         4         5         6         7         8         9
 total charge-density along one line

------------------------ aborting loop because EDIFF is reached ----------------------------------------

  FREE ENERGIE OF THE ION-ELECTRON SYSTEM (eV)
  free  energy   TOTEN  =       -11.318474 eV

  energy  without entropy=      -11.318356  energy(sigma->0) =      -11.318415

  FORCE on cell =-STRESS in cart. coord.  units (eV/reduce length):
  Direction    X        Y        Z        XY       YZ       ZX
  Alpha Z    393.62    393.62    393.62
  Ewald    -1279.09  -1279.09  -1279.09     -0.00      0.00      0.00
  Hartree    266.12    266.12    266.12     -0.00     -0.00     -0.00
  E(xc)     -232.44   -232.44   -232.44      0.00      0.00      0.00
  Local      403.75    403.75    403.75     -0.00      0.00      0.00
  n-local   -257.77   -265.44   -267.78      0.23      2.28      0.69
  augment    167.68    167.68    167.68     -0.00     -0.00     -0.00
  Kinetic    551.38    542.84    537.79     -2.98      0.51     -1.10
  Total       -0.01     -0.01     -0.01     -0.00     -0.00      0.00
  in kB       -0.28     -0.28     -0.28     -0.00     -0.00      0.00

 VOLUME and BASIS-vectors are now :
  energy-cutoff  :      500.00
  volume of cell :       72.18
      direct lattice vectors                 reciprocal lattice vectors
     4.163661211  0.000000000  0.000000000     0.240173239  0.000000000  0.000000000
     0.000000000  4.163661211  0.000000000     0.000000000  0.240173239  0.000000000
     0.000000000  0.000000000  4.163661211     0.000000000  0.000000000  0.240173239

[...]

 FORCES acting on ions
    electron-ion (+dipol)            ewald-force                    non-local-force                 convergence-correction
   -.118E-13 -.155E-13 -.263E-13   0.106E-14 -.252E-14 0.134E-14   0.323E-26 0.517E-25 -.868E-26   0.180E-13 -.370E-14 -.600E-13
   0.135E-12 0.217E-11 -.157E-11   0.223E-13 0.708E-14 0.149E-14   -.367E-25 -.646E-25 -.452E-25   -.106E-13 0.558E-14 -.641E-13
   0.138E-12 -.191E-13 -.446E-12   -.155E-13 -.730E-14 -.264E-14   0.194E-25 0.323E-26 0.646E-25   -.245E-13 0.202E-15 0.493E-13
   -.121E-13 0.141E-12 0.128E-12   -.112E-13 0.230E-14 -.249E-14   0.129E-25 -.630E-25 -.258E-25   0.196E-13 0.119E-13 0.417E-13
   0.250E-12 0.227E-11 -.191E-11   -.334E-14 -.439E-15 -.229E-14   -.111E-26 -.727E-25 -.151E-25   0.239E-14 0.140E-13 -.332E-13

 POSITION                                       TOTAL-FORCE (eV/Angst)
      0.00000      0.00000      0.00000         0.000000      0.000000      0.000000
      2.08183      2.08183      0.00000         0.000000      0.000000      0.000000
      2.08183      0.00000      2.08183         0.000000      0.000000      0.000000
      0.00000      2.08183      2.08183         0.000000      0.000000      0.000000
    total drift:                                0.000000      0.000000     -0.000000

[...]

 d Force = 0.0000000E+00[ 0.000E+00, 0.000E+00]  d Energy = 0.3724407E-05-0.372E-05
 d Force = 0.0000000E+00[ 0.000E+00, 0.000E+00]  d Ewald  = 0.5771742E+00-0.577E+00

[...]

 Steepest descent step on ions:
 trial-energy change:   -0.000004  1 .order   -0.000002   -0.000006    0.000002
  (g-gl).g = 0.563E-05      g.g   = 0.563E-05  gl.gl    = 0.000E+00
 g(Force)  = 0.170E-59   g(Stress)= 0.563E-05 ortho     = 0.000E+00
 gamma     =   0.00000
 trial     =   1.00000
 opt step  =   0.87362  (harmonic =   0.69886) maximal distance =0.00000000
 next E    =   -11.318478   (d E  =  -0.00000)

[...]

 d Force = 0.0000000E+00[ 0.000E+00, 0.000E+00]  d Energy =-0.2893648E-07 0.289E-07
 d Force = 0.0000000E+00[ 0.000E+00, 0.000E+00]  d Ewald  =-0.7295530E-01 0.730E-01

[...]

 d Force = 0.0000000E+00[ 0.000E+00, 0.000E+00]  d Energy =-0.4114809E-06 0.411E-06
 d Force = 0.0000000E+00[ 0.000E+00, 0.000E+00]  d Ewald  =-0.1380229E+00 0.138E+00

[...]

 Steepest descent step on ions:
 trial-energy change:    0.000000  1 .order   -0.000000   -0.000000    0.000000
  (g-gl).g = 0.172E-05      g.g   = 0.339E-06  gl.gl    = 0.563E-05
 g(Force)  = 0.115E-60   g(Stress)= 0.339E-06 ortho     =-0.138E-05
 gamma     =   0.00000
 trial     =   0.97472
 opt step  =   0.72004  (harmonic =   0.72004) maximal distance =0.00000000
 next E    =   -11.318478   (d E  =  -0.00000)

[...]

 eigenvalue-minimisations  :  2548
 total energy-change (2. order) :-0.1175358E-06  (-0.8065210E-09)
 number of electron   44.0000001 magnetization
 augmentation part    21.1159772 magnetization

 Broyden mixing:
  rms(total) = 0.68149E-05    rms(broyden)= 0.68141E-05
  rms(prec ) = 0.12256E-04
  weight for this iteration     100.00

 eigenvalues of (default mixing * dielectric matrix)
  average eigenvalue GAMMA=   1.6584
  1.1360  1.3790  2.4603

[...]

----------------------------------------- Iteration    5(   5)  ---------------------------------------

 eigenvalue-minimisations  :  2444
 total energy-change (2. order) : 0.6767550E-08  (-0.1520803E-09)
 number of electron   44.0000001 magnetization
 augmentation part    21.1159772 magnetization

 Free energy of the ion-electron system (eV)
  alpha Z        PSCENC =       393.74844240
  Ewald energy   TEWEN  =     -3837.67204927
  -1/2 Hartree   DENC   =      -798.16703118
  -V(xc)+E(xc)   XCENC  =       -45.12504314
  PAW double counting   =      3467.17824819    -3290.02722695
  entropy T*S    EENTRO =        -0.00011514
  eigenvalues    EBANDS =       -50.88653939
  atomic energy  EATOM  =      4149.63283719
  free energy    TOTEN  =       -11.31847729 eV

  energy without entropy =      -11.31836215  energy(sigma->0) =      -11.31841972

 average (electrostatic) potential at core
  the test charge radii are     1.1249
  (the norm of the test charge is              1.0000)
       1 -41.6288       2 -41.6288       3 -41.6288       4 -41.6288

 E-fermi :   3.0964     XC(G=0): -11.8763     alpha+bet : -8.0716
   add alpha+bet to get absolut eigen values

[...]

 k-point  84 :       0.5000    0.5000    0.5000
  band No.  band energies     occupation
      1      -3.0446      2.00000
      2      -3.0446      2.00000
      3      -3.0446      2.00000
      4      -3.0446      2.00000
      5      -1.6207      2.00000
      6      -1.6207      2.00000
      7      -1.6207      2.00000
      8      -1.6207      2.00000
      9      -1.6207      2.00000
     10      -1.6207      2.00000
     11      -1.6207      2.00000
     12      -1.6207      2.00000
     13       0.0543      2.00000
     14       0.0543      2.00000
     15       0.0543      2.00000
     16       0.0543      2.00000
     17       0.0543      2.00000
     18       0.0543      2.00000
     19       0.0543      2.00000
     20       0.0543      2.00000
     21       2.7786      2.00000
     22       2.7786      2.00000
     23       2.7786      2.00000
     24       2.7786      2.00000
     25       6.3418      0.00000
     26       6.3418      0.00000
     27       6.3418      0.00000
     28       6.3418      0.00000

 soft charge-density along one line, spin component           1
         0         1         2         3         4         5         6         7         8         9
 total charge-density along one line

------------------------ aborting loop because EDIFF is reached ----------------------------------------

 d Force = 0.0000000E+00[ 0.000E+00, 0.000E+00]  d Energy = 0.1393037E-06-0.139E-06
 d Force = 0.0000000E+00[ 0.000E+00, 0.000E+00]  d Ewald  = 0.3606328E-01-0.361E-01

  FREE ENERGIE OF THE ION-ELECTRON SYSTEM (eV)
  free  energy   TOTEN  =       -11.318477 eV

  energy  without entropy=      -11.318362  energy(sigma->0) =      -11.318420

  FORCE on cell =-STRESS in cart. coord.  units (eV/reduce length):
  Direction    X        Y        Z        XY       YZ       ZX
  Alpha Z    393.75    393.75    393.75
  Ewald    -1279.22  -1279.22  -1279.22     -0.00      0.00      0.00
  Hartree    266.06    266.06    266.06     -0.00     -0.00     -0.00
  E(xc)     -232.45   -232.45   -232.45      0.00     -0.00      0.00
  Local      403.82    403.82    403.82      0.00     -0.00     -0.00
  n-local   -257.75   -265.42   -267.76      0.23      2.28      0.69
  augment    167.69    167.69    167.69     -0.00     -0.00     -0.00
  Kinetic    551.38    542.84    537.80     -2.99      0.50     -1.11
  Total        0.00      0.00      0.00      0.00      0.00     -0.00
  in kB        0.01      0.01      0.01      0.00      0.00     -0.00

 VOLUME and BASIS-vectors are now :
  energy-cutoff  :      500.00
  volume of cell :       72.16
      direct lattice vectors                 reciprocal lattice vectors
     4.163224782  0.000000000  0.000000000     0.240198416  0.000000000 -0.000000000
    -0.000000000  4.163224782  0.000000000    -0.000000000  0.240198416  0.000000000
     0.000000000 -0.000000000  4.163224782    -0.000000000 -0.000000000  0.240198416

  length of vectors
     4.163224782  4.163224782  4.163224782     0.240198416  0.240198416  0.240198416

 FORCES acting on ions
    electron-ion (+dipol)            ewald-force                    non-local-force                 convergence-correction
   -.160E-13 -.114E-13 -.213E-13   0.732E-14 -.129E-13 -.121E-13   0.129E-25 0.517E-25 0.485E-26   0.230E-13 0.597E-14 -.760E-13
   0.137E-12 0.216E-11 -.157E-11   0.108E-13 -.313E-14 -.120E-13   0.128E-25 0.245E-28 0.258E-25   -.145E-14 -.453E-14 -.707E-13
   0.137E-12 -.137E-13 -.444E-12   -.381E-14 0.505E-14 0.110E-13   -.296E-28 -.162E-25 0.485E-26   -.162E-14 0.921E-14 0.497E-13
   -.164E-13 0.135E-12 0.130E-12   -.173E-13 0.148E-13 0.112E-13   0.129E-25 -.808E-25 -.323E-25   0.257E-13 0.129E-14 0.467E-13
   0.241E-12 0.227E-11 -.190E-11   -.290E-14 0.384E-14 -.187E-14   0.385E-25 -.453E-25 0.323E-26   0.457E-13 0.119E-13 -.503E-13

 POSITION                                       TOTAL-FORCE (eV/Angst)
     -0.00000      0.00000      0.00000        -0.000000     -0.000000      0.000000
      2.08161      2.08161      0.00000         0.000000     -0.000000      0.000000
      2.08161      0.00000      2.08161         0.000000     -0.000000      0.000000
     -0.00000      2.08161      2.08161         0.000000     -0.000000      0.000000
    total drift:                                0.000000      0.000000     -0.000000

 reached required accuracy - stopping structural energy minimisation