 vasp.4.6.28 25Jul05 complex
 executed on             LinuxIFC date 2016.09.01  15:53:23

 INCAR:
 POTCAR:   PAW_PBE Au 06Sep2000
 POTCAR:   PAW_PBE Au 06Sep2000
   VRHFIN =Au: s1d10

   TITEL  = PAW_PBE Au 06Sep2000
   POMASS =  196.966; ZVAL   =   11.000    mass and valenz
   ENMAX  =  229.948; ENMIN  =  172.461 eV
   QCUT   =   -4.111; QGAM   =    8.222    optimization parameters

   Description
     l     E      TYP  RCUT    TYP  RCUT
     2   .000     23  2.500
     2   .000     23  2.500
     0   .000     23  2.500
     0   .000     23  2.500
     1  -.200     23  2.500
     1   .000     23  2.500
     3   .000      7   .000

 PAW_PBE Au 06Sep2000                   :

 POSCAR: No title
  positions in direct lattice

 ion  position               nearest neighbor table
   1  0.750  0.750  0.500-   3 3.15  20 3.15  14 3.15  19 3.15   5 3.15  26 3.15   6 3.15  29 3.15
                            11 3.15  18 3.15  10 3.15   8 3.15
   2  0.750  0.750  0.000-   8 3.15  10 3.15  11 3.15  18 3.15  22 3.15  27 3.15  12 3.15  32 3.15
                             5 3.15  26 3.15   3 3.15  20 3.15
   3  0.750  0.000  0.250-   1 3.15   9 3.15   5 3.15  12 3.15  19 3.15  28 3.15  13 3.15  18 3.15
                            27 3.15   6 3.15   4 3.15   2 3.15
   4  0.750  0.250  0.500-   8 3.15  10 3.15   6 3.15  13 3.15  29 3.15  31 3.15  14 3.15  19 3.15
                            21 3.15  28 3.15   3 3.15  20 3.15
   5  0.000  0.750  0.250-  12 3.15  14 3.15   1 3.15   3 3.15  15 3.15  25 3.15  16 3.15  10 3.15
                             2 3.15   7 3.15  22 3.15   6 3.15
   6  0.000  0.000  0.500-  11 3.15  13 3.15   8 3.15   4 3.15   7 3.15  16 3.15   1 3.15  17 3.15
                             3 3.15  23 3.15  21 3.15   5 3.15
   7  0.250  0.750  0.500-  16 3.15  30 3.15   6 3.15  18 3.15  29 3.15  11 3.15  14 3.15  19 3.15
                             5 3.15  26 3.15  25 3.15  23 3.15
   8  0.750  0.000  0.750-   2 3.15   4 3.15   6 3.15  11 3.15  27 3.15  31 3.15  21 3.15  26 3.15
                            12 3.15  19 3.15   9 3.15   1 3.15
   9  0.750  0.250  0.000-   3 3.15  20 3.15  12 3.15  21 3.15  28 3.15  32 3.15  22 3.15  27 3.15
                            31 3.15  13 3.15  10 3.15   8 3.15
  10  0.750  0.500  0.250-   2 3.15   4 3.15  13 3.15  18 3.15  22 3.15  29 3.15  28 3.15   5 3.15
                            14 3.15  32 3.15   9 3.15   1 3.15
  11  0.000  0.750  0.750-   6 3.15  22 3.15   7 3.15   8 3.15   2 3.15  30 3.15  23 3.15  20 3.15
                             1 3.15  15 3.15  14 3.15  12 3.15
  12  0.000  0.000  0.000-   5 3.15  21 3.15   9 3.15  15 3.15   3 3.15  23 3.15   2 3.15  24 3.15
                            16 3.15   8 3.15  13 3.15  11 3.15
  13  0.000  0.250  0.250-   6 3.15  22 3.15  10 3.15  16 3.15   4 3.15  24 3.15   3 3.15  25 3.15
                            17 3.15   9 3.15  14 3.15  12 3.15
  14  0.000  0.500  0.500-   5 3.15  21 3.15  17 3.15  20 3.15   1 3.15  25 3.15   4 3.15   7 3.15
                            10 3.15  30 3.15  13 3.15  11 3.15
  15  0.250  0.750  0.000-  23 3.15  25 3.15   5 3.15  12 3.15  26 3.15  32 3.15  27 3.15  22 3.15
                            11 3.15  18 3.15  30 3.15  16 3.15
  16  0.250  0.000  0.250-   7 3.15  24 3.15  13 3.15  18 3.15   6 3.15  27 3.15   5 3.15  28 3.15
                            19 3.15  12 3.15  17 3.15  15 3.15
  17  0.250  0.250  0.500-  23 3.15  25 3.15  21 3.15  14 3.15  19 3.15  28 3.15   6 3.15  29 3.15
                            13 3.15  31 3.15  30 3.15  16 3.15
  18  0.500  0.750  0.250-  27 3.15  29 3.15  10 3.15  16 3.15   2 3.15   7 3.15   3 3.15  25 3.15
                             1 3.15  15 3.15  19 3.15  32 3.15
  19  0.500  0.000  0.500-  26 3.15  28 3.15  17 3.15  23 3.15   1 3.15   3 3.15   4 3.15   7 3.15
                             8 3.15  16 3.15  18 3.15  31 3.15
  20  0.750  0.500  0.750-   1 3.15   9 3.15  14 3.15  21 3.15  26 3.15  32 3.15  31 3.15  11 3.15
                            22 3.15  29 3.15   4 3.15   2 3.15
  21  0.000  0.250  0.750-  12 3.15  14 3.15   9 3.15  17 3.15  20 3.15  23 3.15   8 3.15  30 3.15
                            24 3.15   4 3.15  22 3.15   6 3.15
  22  0.000  0.500  0.000-  11 3.15  13 3.15   2 3.15  10 3.15  24 3.15  30 3.15   9 3.15  15 3.15
                            25 3.15  20 3.15  21 3.15   5 3.15
  23  0.250  0.000  0.750-  15 3.15  17 3.15  12 3.15  19 3.15  21 3.15  26 3.15  11 3.15  31 3.15
                            27 3.15   6 3.15  24 3.15   7 3.15
  24  0.250  0.250  0.000-  16 3.15  30 3.15  22 3.15  27 3.15  13 3.15  31 3.15  12 3.15  32 3.15
                            28 3.15  21 3.15  25 3.15  23 3.15
  25  0.250  0.500  0.250-  15 3.15  17 3.15   5 3.15  14 3.15  28 3.15  32 3.15  13 3.15  18 3.15
                            29 3.15  22 3.15  24 3.15   7 3.15
  26  0.500  0.750  0.750-  19 3.15  32 3.15   1 3.15  20 3.15  23 3.15  15 3.15  30 3.15   8 3.15
                             7 3.15   2 3.15  27 3.15  29 3.15
  27  0.500  0.000  0.000-  18 3.15  31 3.15  16 3.15   2 3.15  24 3.15   8 3.15   9 3.15  15 3.15
                             3 3.15  23 3.15  28 3.15  26 3.15
  28  0.500  0.250  0.250-  19 3.15  32 3.15  17 3.15   3 3.15  25 3.15   9 3.15  10 3.15  16 3.15
                             4 3.15  24 3.15  29 3.15  27 3.15
  29  0.500  0.500  0.500-  18 3.15  31 3.15  10 3.15   4 3.15  30 3.15   7 3.15  17 3.15   1 3.15
                            20 3.15  25 3.15  26 3.15  28 3.15
  30  0.250  0.500  0.750-   7 3.15  24 3.15  22 3.15  11 3.15  29 3.15  31 3.15  21 3.15  26 3.15
                            14 3.15  32 3.15  17 3.15  15 3.15
  31  0.500  0.250  0.750-  27 3.15  29 3.15  24 3.15   4 3.15   8 3.15  30 3.15  20 3.15  23 3.15
                             9 3.15  17 3.15  19 3.15  32 3.15
  32  0.500  0.500  0.000-  26 3.15  28 3.15  20 3.15  25 3.15   9 3.15  15 3.15  24 3.15   2 3.15
                            10 3.15  30 3.15  18 3.15  31 3.15

  LATTYP: Found a simple cubic cell.
 ALAT       =     8.9156168400

  Lattice vectors:

 A1 = (   8.9156168400,   0.0000000000,   0.0000000000)
 A2 = (   0.0000001600,   8.9156168400,   0.0000000000)
 A3 = (   0.0000001600,   0.0000001600,   8.9156168400)
 Subroutine PRICEL returns following result:

  LATTYP: Found a face centered cubic cell.
 ALAT       =     4.4578084600

  Lattice vectors:

 A1 = (   2.2289042500,   2.2289042100,  -0.0000000000)
 A2 = (   2.2289041700,  -0.0000000400,  -2.2289042100)
 A3 = (   0.0000000000,   2.2289041700,  -2.2289042100)

  32 primitive cells build up your supercell.

Analysis of symmetry for initial positions (statically):

 Routine SETGRP: Setting up the symmetry group for a
 simple cubic supercell.

 Subroutine GETGRP returns: Found 48 space group operations
 (whereof 48 operations were pure point group operations)
 out of a pool of 48 trial point group operations.

The static configuration has the point symmetry O_h .

Analysis of symmetry for dynamics (positions and initial velocities):

 Subroutine DYNSYM returns: Found 48 space group operations
 (whereof 48 operations were pure point group operations)
 out of a pool of 48 trial space group operations
 (whereof 48 operations were pure point group operations)
 and found also    32 'primitive' translations

The dynamic configuration has the point symmetry O_h .

 KPOINTS: Automatic mesh

Automatic generation of k-mesh.

 Subroutine IBZKPT returns following result:

 Found      1 irreducible k-points:

 Following reciprocal coordinates:
            Coordinates               Weight
  0.250000  0.250000  0.250000      8.000000

 Following cartesian coordinates:
            Coordinates               Weight
  0.028041  0.028041  0.028041      8.000000

 I would recommend the setting:
   dimension x,y,z NGX =    33 NGY =   33 NGZ =   33
 SYSTEM =  No title
 POSCAR =  No title

 Startparameter for this run:
   NWRITE =      2    write-flag & timer
   PREC   = normal    medium, high low
   ISTART =      0    job   : 0-new  1-cont  2-samecut
   ICHARG =      2    charge: 1-file 2-atom 10-const
   ISPIN  =      1    spin polarized calculation?
   LNONCOLLINEAR =      F non collinear calculations
   LSORBIT =      F    spin-orbit coupling
   INIWAV =      1    electr: 0-lowe 1-rand  2-diag
   LASPH  =      F    aspherical Exc in radial PAW
   METAGGA=      F    non-selfconsistent MetaGGA calc.

 Electronic Relaxation 1
   ENCUT  =  229.9 eV  16.90 Ry    4.11 a.u.  11.02 11.02 11.02*2*pi/ulx,y,z
   ENINI  =  229.9     initial cutoff
   ENAUG  =  356.7 eV  augmentation charge cutoff
   NELM   =     60;   NELMIN=  2; NELMDL= -5     # of ELM steps
   EDIFF  = 0.1E-04   stopping-criterion for ELM
   LREAL  =      F    real-space projection
   LCOMPAT=      F    compatible to vasp.4.4
   LREAL_COMPAT= F    compatible to vasp.4.5.1-3
   GGA_COMPAT  = T    GGA compatible to vasp.4.4-vasp.4.6
   LMAXPAW     = -100 max onsite density
   LMAXMIX     =    2 max onsite mixed and CHGCAR
   VOSKOWN=      1    Vosko Wilk Nusair interpolation
   ROPT   =    0.00000
 Ionic relaxation
   EDIFFG = -.2E-01   stopping-criterion for IOM
   NSW    =    100    number of steps for IOM
   NBLOCK =      1;   KBLOCK =    100    inner block; outer block
   IBRION =      2    ionic relax: 0-MD 1-quasi-New 2-CG
   NFREE  =      1    steps in history (QN), initial steepest desc. (CG)
   ISIF   =      2    stress and relaxation
   IWAVPR =     11    prediction:  0-non 1-charg 2-wave 3-comb
   ISYM   =      2    0-nonsym 1-usesym 2-fastsym
   LCORR  =      T    Harris-Foulkes like correction to forces

   POTIM  =   0.50    time-step for ionic-motion
   TEIN   =    0.0    initial temperature
   TEBEG  =    0.0;   TEEND  =   0.0 temperature during run
   SMASS  =  -3.00    Nose mass-parameter (am)
   estimated Nose-frequenzy (Omega)   =  0.10E-29 period in steps =****** mass=  -0.182E-26a.u.
   NPACO  =    256;   APACO  = 16.0  distance and # of slots for P.C.
   PSTRESS=    0.0 pullay stress

  Mass of Ions in am
   POMASS = 196.97
  Ionic Valenz
   ZVAL   =  11.00
  Atomic Wigner-Seitz radii
   NELECT =     352.0000    total number of electrons
   NUPDOWN=      -1.0000    fix difference up-down

 DOS related values:
   EMIN   =  10.00;   EMAX   =-10.00  energy-range for DOS
   ISMEAR =     1;   SIGMA  =   0.20  broadening in eV -4-tet -1-fermi 0-gaus

 Electronic relaxation 2 (details)
   IALGO  =     38    algorithm
   LDIAG  =      T    sub-space diagonalisation
   IMIX   =      4    mixing-type and parameters
     AMIX     =   0.40;   BMIX     =  1.00
     AMIX_MAG =   1.60;   BMIX_MAG =  1.00
     AMIN     =   0.10
     WC   =   100.;   INIMIX=   1;  MIXPRE=   1

 Intra band minimization:
   WEIMIN = 0.0010     energy-eigenvalue tresh-hold
   EBREAK =  0.12E-07  absolut break condition
   DEPER  =   0.30     relativ break condition

   TIME   =   0.10     timestep for ELM

  volume/ion in A,a.u.               =      22.15       149.45
  Fermi-wavevector in a.u.,eV,Ry     =   1.296495 22.870038  1.680900

 Second variation
   LSECVAR=     F    do a second variation

 Write flags
   LWAVE  =      T    write WAVECAR
   LCHARG =      F    write CHGCAR
[...]
   2.22890433  4.45780846  2.22890421
   4.45780866  6.68671275  6.68671263
   4.45780842  0.00000000  0.00000000
   4.45780850  2.22890425  2.22890421
   4.45780858  4.45780850  4.45780842
   2.22890441  4.45780854  6.68671263
   4.45780858  2.22890433  6.68671263
   4.45780850  4.45780842  0.00000000

 k-point  1 :  0.25000.25000.2500  plane waves:   5614

 maximum and minimum number of plane-waves per node :   5614  5614

 maximum number of plane-waves:   5614
 maximal index in each direction:
   IXMAX= 10   IYMAX= 10   IZMAX= 10
   IXMIN=-11   IYMIN=-11   IZMIN=-11

 WARNING: wrap around error must be expected set NGX to  44
 WARNING: wrap around error must be expected set NGY to  44
 WARNING: wrap around error must be expected set NGZ to  44

 parallel 3dFFT wavefunction:
    minimum data exchange during FFTs selected (reduces bandwidth)
 parallel 3dFFT charge:
    minimum data exchange during FFTs selected (reduces bandwidth)

Broyden mixing: mesh for mixing (old mesh)
   NGX = 23   NGY = 23   NGZ = 23
  (NGX  = 72   NGY  = 72   NGZ  = 72)
 gives a total of  12167 points
 initial charge density was supplied:
 charge density of overlapping atoms calculated
 number of electron  352.0000000 magnetization
 keeping initial charge density in first step

 Maximum index for augmentation-charges          969 (set IRDMAX)

 First call to EWALD:  gamma=   0.199
 Maximum number of real-space cells 3x 3x 3
 Maximum number of reciprocal cells 3x 3x 3

----------------------------------------- Iteration    1(   1)  ---------------------------------------

 eigenvalue-minimisations  :   432
 total energy-change (2. order) : 0.1831003E+04  (-0.1064288E+05)
 number of electron  352.0000000 magnetization
 augmentation part   352.0000000 magnetization

 Free energy of the ion-electron system (eV)
  alpha Z        PSCENC =      2706.08790652
  Ewald energy   TEWEN  =    -28672.55223246
  -1/2 Hartree   DENC   =     -5093.78650763
  -V(xc)+E(xc)   XCENC  =       466.31478384
  PAW double counting   =     23920.39735419   -23172.13309131
  entropy T*S    EENTRO =        -0.01867197
  eigenvalues    EBANDS =      2045.14280440
  atomic energy  EATOM  =     29631.55017626
  free energy    TOTEN  =      1831.00252184 eV

  energy without entropy =     1831.02119381  energy(sigma->0) =     1831.00874583

[...]

 eigenvalue-minimisations  :   444
 total energy-change (2. order) :-0.1831369E+04  (-0.1727927E+04)
 number of electron  352.0000000 magnetization
 augmentation part   352.0000000 magnetization

[...]

 Broyden mixing:
  rms(total) = 0.13883E+01    rms(broyden)= 0.13871E+01
  rms(prec ) = 0.21171E+01
  weight for this iteration     100.00

[...]

 eigenvalues of (default mixing * dielectric matrix)
  average eigenvalue GAMMA=   1.1253
  1.1253

[...]

 eigenvalue-minimisations  :   452
 total energy-change (2. order) : 0.4562448E-01  (-0.3510631E-02)
 number of electron  351.9994809 magnetization
 augmentation part   130.5954555 magnetization

[...]

 Broyden mixing:
  rms(total) = 0.99317E-03    rms(broyden)= 0.99258E-03
  rms(prec ) = 0.13225E-02
  weight for this iteration     100.00

 eigenvalues of (default mixing * dielectric matrix)
  average eigenvalue GAMMA=   1.8106
  2.9075  2.4515  1.0686  1.0686  1.5568

[...]

----------------------------------------- Iteration    1(  11)  ---------------------------------------

 eigenvalue-minimisations  :   292
 total energy-change (2. order) :-0.5900369E-05  (-0.1808814E-05)
 number of electron  351.9994807 magnetization
 augmentation part   130.6432209 magnetization

 Free energy of the ion-electron system (eV)
  alpha Z        PSCENC =      2706.08790652
  Ewald energy   TEWEN  =    -28672.55223246
  -1/2 Hartree   DENC   =     -4775.37219256
  -V(xc)+E(xc)   XCENC  =       451.59574905
  PAW double counting   =     23400.32299787   -22701.95959249
  entropy T*S    EENTRO =        -0.17304009
  eigenvalues    EBANDS =      -136.19665552
  atomic energy  EATOM  =     29631.55017626
  free energy    TOTEN  =       -96.69688343 eV

  energy without entropy =      -96.52384334  energy(sigma->0) =      -96.63920340

 average (electrostatic) potential at core
  the test charge radii are     1.2098
  (the norm of the test charge is              1.0000)
       1 -47.6336       2 -47.6336       3 -47.6336       4 -47.6336       5 -47.6336
       6 -47.6336       7 -47.6336       8 -47.6336       9 -47.6336      10 -47.6336
      11 -47.6336      12 -47.6336      13 -47.6336      14 -47.6336      15 -47.6336
      16 -47.6336      17 -47.6336      18 -47.6336      19 -47.6336      20 -47.6336
      21 -47.6336      22 -47.6336      23 -47.6336      24 -47.6336      25 -47.6336
      26 -47.6336      27 -47.6336      28 -47.6336      29 -47.6336      30 -47.6336
      31 -47.6336      32 -47.6336

 E-fermi :   2.6426     XC(G=0): -11.1940     alpha+bet : -7.8361
   add alpha+bet to get absolut eigen values

 k-point   1 :       0.2500    0.2500    0.2500
  band No.  band energies     occupation
      1      -4.1421      2.00000
      2      -3.1230      2.00000
      3      -3.1230      2.00000
      4      -3.1230      2.00000
      5      -2.5073      2.00000
      6      -2.4506      2.00000
      7      -2.4506      2.00000
      8      -2.4506      2.00000
      9      -2.1875      2.00000
     10      -2.1875      2.00000
     11      -2.1875      2.00000
     12      -2.0345      2.00000
     13      -2.0345      2.00000
     14      -2.0345      2.00000
     15      -1.9887      2.00000
     16      -1.9887      2.00000
     17      -1.9887      2.00000
     18      -1.8231      2.00000
     19      -1.8231      2.00000
     20      -1.8231      2.00000
     21      -1.7223      2.00000
     22      -1.7223      2.00000
     23      -1.7223      2.00000
     24      -1.7223      2.00000
     25      -1.7223      2.00000
     26      -1.7223      2.00000
     27      -1.6511      2.00000
     28      -1.6511      2.00000
     29      -1.6511      2.00000
     30      -1.5946      2.00000
     31      -1.5946      2.00000
     32      -1.5946      2.00000
     33      -1.5946      2.00000
     34      -1.5946      2.00000
     35      -1.5946      2.00000
     36      -1.5096      2.00000
     37      -1.5096      2.00000
     38      -1.5096      2.00000
     39      -1.2878      2.00000
     40      -1.2878      2.00000
     41      -1.2878      2.00000
     42      -1.2878      2.00000
     43      -1.2878      2.00000
     44      -1.2878      2.00000
     45      -1.0823      2.00000
     46      -1.0823      2.00000
     47      -1.0823      2.00000
     48      -0.9989      2.00000
     49      -0.9989      2.00000
     50      -0.9989      2.00000
     51      -0.9558      2.00000
     52      -0.9558      2.00000
     53      -0.9558      2.00000
     54      -0.9558      2.00000
     55      -0.9558      2.00000
     56      -0.9558      2.00000
     57      -0.8551      2.00000
     58      -0.8551      2.00000
     59      -0.8551      2.00000
     60      -0.8517      2.00000
[...]
    198       6.8646     -0.00000
    199       7.3646     -0.00000
    200       7.3646     -0.00000
    201       7.3646     -0.00000
    202       7.3646     -0.00000
    203       7.3646     -0.00000
    204       7.3646     -0.00000
    205       7.9195     -0.00000
    206       8.1495      0.00000
    207       8.1495      0.00000
    208       8.1495      0.00000
    209       8.7270      0.00000
    210       8.7270      0.00000
    211       8.7270      0.00000
    212       8.7270      0.00000

 soft charge-density along one line, spin component           1
         0         1         2         3         4         5         6         7         8         9
 total charge-density along one line

------------------------ aborting loop because EDIFF is reached ----------------------------------------

  FREE ENERGIE OF THE ION-ELECTRON SYSTEM (eV)
  free  energy   TOTEN  =       -96.696883 eV

  energy  without entropy=      -96.523843  energy(sigma->0) =      -96.639203

  FORCE on cell =-STRESS in cart. coord.  units (eV/reduce length):
  Direction    X        Y        Z        XY       YZ       ZX
  Alpha Z   2706.09   2706.09   2706.09
  Ewald    -9557.56  -9557.56  -9557.56     -0.00     -0.00     -0.00
  Hartree   1591.77   1591.77   1591.77     -0.00     -0.00     -0.00
  E(xc)    -1571.66  -1571.66  -1571.66     -0.00     -0.00     -0.00
  Local     2223.45   2223.45   2223.45      0.00      0.00      0.00
  n-local  -1717.98  -1717.98  -1717.98      6.91      6.91      6.91
  augment   1375.99   1375.99   1375.99     -0.00     -0.00     -0.00
  Kinetic   4877.66   4877.66   4877.66     -3.73     -3.73     -3.73
  Total      -72.23    -72.23    -72.23     -0.00     -0.00     -0.00
  in kB     -163.30   -163.30   -163.30     -0.00     -0.00     -0.00

 VOLUME and BASIS-vectors are now :
  energy-cutoff  :      229.95
  volume of cell :      708.69
      direct lattice vectors                 reciprocal lattice vectors
     8.915616840  0.000000000  0.000000000     0.112162738 -0.000000002 -0.000000002
     0.000000160  8.915616840  0.000000000     0.000000000  0.112162738 -0.000000002
     0.000000160  0.000000160  8.915616840     0.000000000  0.000000000  0.112162738

  length of vectors
     8.915616840  8.915616840  8.915616840     0.112162738  0.112162738  0.112162738

 FORCES acting on ions
    electron-ion (+dipol)            ewald-force                    non-local-force                 convergence-correction
   0.633E-12 0.154E-11 0.455E-12   0.163E-12 -.249E-13 -.301E-13   0.905E-22 -.861E-22 -.179E-22   0.124E-12 -.259E-12 0.199E-12
   0.633E-12 0.122E-11 0.503E-11   0.156E-12 0.426E-13 -.208E-13   0.576E-22 0.462E-22 0.544E-22   0.202E-13 0.373E-12 -.220E-12
   0.637E-12 -.643E-13 -.360E-11   0.121E-12 0.928E-13 0.675E-13   -.200E-21 0.856E-22 0.225E-22   -.844E-13 -.124E-12 -.132E-11
   0.637E-12 0.585E-11 0.422E-12   0.924E-13 0.391E-13 0.433E-13   -.104E-21 0.100E-21 -.751E-24   0.165E-13 0.284E-12 0.390E-12
   -.599E-13 0.626E-12 0.153E-12   0.604E-13 -.284E-13 -.604E-13   0.550E-22 -.218E-22 -.161E-21   0.160E-12 0.108E-12 -.837E-12
   -.591E-13 -.375E-13 0.386E-12   0.990E-13 -.398E-13 0.324E-13   0.151E-21 -.812E-22 -.104E-21   0.225E-12 0.287E-13 0.143E-12
   0.177E-12 0.203E-12 0.957E-12   -.426E-13 0.142E-13 -.137E-13   -.117E-21 0.113E-21 0.404E-22   -.980E-13 -.146E-12 -.102E-12
   0.633E-12 -.428E-13 0.448E-11   0.675E-13 0.133E-12 -.355E-14   0.555E-22 -.500E-22 -.416E-22   0.224E-12 0.962E-13 0.124E-11
   0.639E-12 -.416E-12 -.156E-11   0.426E-13 0.568E-13 0.429E-13   -.470E-22 0.861E-22 -.273E-22   -.246E-13 -.353E-12 -.432E-12
   0.638E-12 0.360E-11 0.257E-11   0.142E-13 0.121E-12 0.853E-13   0.369E-22 0.775E-22 -.865E-22   -.577E-13 0.682E-13 -.683E-12
   -.507E-13 0.631E-12 0.598E-12   -.116E-13 0.320E-13 -.746E-13   -.782E-23 -.988E-22 -.951E-22   -.163E-12 -.986E-14 0.751E-12
   -.611E-13 -.369E-13 -.932E-13   -.230E-13 -.317E-13 0.355E-14   -.435E-22 -.351E-22 0.648E-22   -.232E-12 -.831E-14 -.124E-12
   -.605E-13 0.193E-12 0.152E-12   0.451E-13 -.320E-13 -.178E-13   -.141E-21 0.662E-22 0.467E-22   0.318E-12 -.554E-13 -.798E-12
   -.484E-13 0.389E-12 0.383E-12   0.849E-13 -.107E-13 0.103E-12   -.157E-21 0.105E-21 0.981E-22   0.107E-12 -.315E-13 0.238E-12
   0.172E-12 0.174E-11 -.112E-11   -.426E-13 -.284E-13 -.321E-13   -.439E-22 -.307E-22 -.108E-22   0.510E-14 0.111E-12 0.121E-12
   0.170E-12 -.268E-13 0.722E-12   0.746E-13 -.404E-13 -.284E-13   0.100E-21 -.109E-21 -.360E-22   0.111E-12 0.631E-13 -.875E-12
   0.168E-12 0.199E-12 0.944E-12   0.497E-13 -.284E-13 0.519E-13   0.130E-21 -.116E-21 -.126E-21   0.140E-13 0.158E-12 -.757E-13
   0.417E-12 -.757E-13 0.525E-12   -.255E-13 -.995E-13 -.142E-12   -.164E-21 -.162E-22 0.449E-22   -.139E-12 0.124E-12 -.952E-12
   0.416E-12 -.337E-13 0.153E-11   -.247E-14 -.973E-13 0.282E-13   -.176E-21 0.721E-22 0.115E-21   -.209E-12 0.126E-12 -.155E-12
   0.633E-12 0.361E-11 -.170E-11   -.142E-13 0.121E-12 0.284E-13   -.761E-23 -.741E-23 0.561E-22   0.476E-13 -.113E-12 0.607E-12
   -.499E-13 0.188E-12 0.595E-12   -.611E-13 0.000E+00 -.213E-13   0.120E-21 0.208E-22 0.273E-22   -.177E-12 0.444E-13 0.709E-12
   -.536E-13 0.393E-12 -.864E-13   0.105E-13 0.107E-13 0.532E-13   -.418E-22 -.971E-22 -.521E-22   0.232E-13 0.763E-14 -.249E-12
   0.178E-12 -.464E-13 0.116E-11   -.746E-13 -.138E-13 -.107E-13   0.460E-22 0.124E-21 -.152E-22   -.195E-12 0.919E-13 0.761E-12
   0.169E-12 0.226E-12 0.475E-12   -.426E-13 0.284E-13 -.398E-14   -.107E-21 0.407E-22 0.786E-22   0.509E-13 -.105E-12 0.876E-13
   0.172E-12 0.378E-12 0.722E-12   0.426E-13 0.714E-13 0.711E-13   -.741E-22 0.467E-23 0.699E-22   0.770E-13 -.526E-13 -.594E-12
   0.411E-12 0.315E-11 0.944E-12   -.114E-12 -.426E-13 -.114E-12   -.133E-21 0.815E-22 -.101E-21   0.183E-12 -.195E-12 0.841E-12
   0.421E-12 -.474E-13 -.224E-11   -.246E-13 -.973E-13 -.426E-13   0.560E-22 0.111E-21 0.103E-22   0.246E-12 0.256E-13 0.189E-12
   0.413E-12 0.177E-11 0.526E-12   -.779E-13 -.853E-13 -.711E-13   0.590E-23 0.709E-22 0.683E-22   -.299E-12 -.110E-12 -.851E-12
   0.407E-12 0.395E-12 -.178E-11   -.430E-13 -.710E-13 0.301E-13   0.242E-21 -.430E-22 -.552E-22   -.823E-13 -.149E-12 0.122E-12
   0.178E-12 0.428E-12 0.115E-11   -.711E-13 0.352E-13 0.142E-13   0.167E-21 0.187E-22 0.981E-23   -.246E-13 -.841E-13 0.521E-12
   0.407E-12 -.141E-11 0.970E-12   -.605E-14 -.142E-13 -.426E-13   -.175E-21 0.841E-22 0.203E-21   0.195E-12 0.192E-12 0.731E-12
   0.410E-12 0.444E-12 0.104E-11   -.107E-12 -.284E-13 -.626E-16   -.113E-21 0.893E-22 0.579E-22   0.590E-14 -.371E-13 -.160E-12
   0.933E-11 0.249E-10 0.147E-10   0.340E-12 -.158E-13 -.744E-13   -.538E-21 0.605E-21 0.138E-21   0.369E-12 0.686E-13 -.786E-12

 POSITION                                       TOTAL-FORCE (eV/Angst)
      6.68671      6.68671      4.45781         0.000000      0.000000      0.000000
      6.68671      6.68671      0.00000         0.000000     -0.000000      0.000000
      6.68671      0.00000      2.22890         0.000000     -0.000000      0.000000
      6.68671      2.22890      4.45781         0.000000     -0.000000     -0.000000
      0.00000      6.68671      2.22890         0.000000      0.000000      0.000000
      0.00000      0.00000      4.45781         0.000000      0.000000      0.000000
      2.22890      6.68671      4.45781         0.000000      0.000000     -0.000000
      6.68671      0.00000      6.68671         0.000000      0.000000      0.000000
      6.68671      2.22890      0.00000        -0.000000     -0.000000     -0.000000
      6.68671      4.45781      2.22890        -0.000000      0.000000      0.000000
      0.00000      6.68671      6.68671         0.000000     -0.000000     -0.000000
      0.00000      0.00000      0.00000         0.000000     -0.000000      0.000000
      0.00000      2.22890      2.22890         0.000000      0.000000      0.000000
      0.00000      4.45781      4.45781         0.000000     -0.000000     -0.000000
      2.22890      6.68671      0.00000        -0.000000     -0.000000     -0.000000
      2.22890      0.00000      2.22890        -0.000000      0.000000      0.000000
      2.22890      2.22890      4.45781         0.000000     -0.000000      0.000000
      4.45781      6.68671      2.22890         0.000000     -0.000000      0.000000
      4.45781      0.00000      4.45781        -0.000000     -0.000000     -0.000000
      6.68671      4.45781      6.68671         0.000000      0.000000     -0.000000
      0.00000      2.22890      6.68671        -0.000000     -0.000000      0.000000
      0.00000      4.45781      0.00000        -0.000000      0.000000      0.000000
      2.22890      0.00000      6.68671        -0.000000     -0.000000     -0.000000
      2.22890      2.22890      0.00000         0.000000     -0.000000      0.000000
      2.22890      4.45781      2.22890        -0.000000     -0.000000      0.000000
      4.45781      6.68671      6.68671         0.000000     -0.000000      0.000000
      4.45781      0.00000      0.00000        -0.000000      0.000000     -0.000000
      4.45781      2.22890      2.22890        -0.000000      0.000000      0.000000
      4.45781      4.45781      4.45781         0.000000     -0.000000      0.000000
      2.22890      4.45781      6.68671        -0.000000      0.000000      0.000000
      4.45781      2.22890      6.68671        -0.000000     -0.000000     -0.000000
      4.45781      4.45781      0.00000         0.000000      0.000000      0.000000
    total drift:                                0.000000      0.000000      0.000000

 reached required accuracy - stopping structural energy minimisation
 writing wavefunctions