 vasp.4.6.28 25Jul05 complex
 executed on             LinuxIFC date 2016.01.20  17:28:02

 INCAR:
 POTCAR:   PAW_PBE Cu 05Jan2001
 POTCAR:   PAW_PBE Cu 05Jan2001
   VRHFIN =Cu: d10 p1

   TITEL  = PAW_PBE Cu 05Jan2001
   POMASS =   63.546; ZVAL   =   11.000    mass and valenz
   ENMAX  =  273.214; ENMIN  =  204.910 eV
   QCUT   =   -4.481; QGAM   =    8.962    optimization parameters

   Description
     l     E      TYP  RCUT    TYP  RCUT
     2   .000     23  2.300
     2   .000     23  2.300
     0   .000     23  2.300
     0   .000     23  2.300
     1  -.200     23  2.300
     1   .000     23  2.300
     3   .000      7   .000

 PAW_PBE Cu 05Jan2001                   :

 POSCAR: Cu
  positions in direct lattice

 ion  position               nearest neighbor table
   1  0.005  0.000  0.000-   9 2.55  11 2.55  17 2.55  21 2.55  25 2.57  27 2.57  29 2.57  31 2.57
                            10 2.60  18 2.60  12 2.60  22 2.60
   2  0.500  0.000  0.000-   9 2.57  10 2.57  11 2.57  12 2.57  17 2.57  18 2.57  21 2.57  22 2.57
                            26 2.57  28 2.57  30 2.57  32 2.57
   3  0.000  0.500  0.000-   9 2.57  10 2.57  11 2.57  12 2.57  19 2.57  20 2.57  23 2.57  24 2.57
                            25 2.57  27 2.57  29 2.57  31 2.57
   4  0.500  0.500  0.000-   9 2.57  10 2.57  11 2.57  12 2.57  19 2.57  20 2.57  23 2.57  24 2.57
                            26 2.57  28 2.57  30 2.57  32 2.57
   5  0.000  0.000  0.500-  13 2.57  14 2.57  15 2.57  16 2.57  17 2.57  18 2.57  21 2.57  22 2.57
                            25 2.57  27 2.57  29 2.57  31 2.57
   6  0.500  0.000  0.500-  13 2.57  14 2.57  15 2.57  16 2.57  17 2.57  18 2.57  21 2.57  22 2.57
                            26 2.57  28 2.57  30 2.57  32 2.57
   7  0.000  0.500  0.500-  13 2.57  14 2.57  15 2.57  16 2.57  19 2.57  20 2.57  23 2.57  24 2.57
                            25 2.57  27 2.57  29 2.57  31 2.57
   8  0.500  0.500  0.500-  13 2.57  14 2.57  15 2.57  16 2.57  19 2.57  20 2.57  23 2.57  24 2.57
                            26 2.57  28 2.57  30 2.57  32 2.57
   9  0.250  0.250  0.000-   1 2.55   2 2.57   3 2.57   4 2.57  17 2.57  19 2.57  21 2.57  23 2.57
                            25 2.57  26 2.57  29 2.57  30 2.57
  10  0.750  0.250  0.000-   2 2.57   3 2.57   4 2.57  18 2.57  20 2.57  22 2.57  24 2.57  25 2.57
                            26 2.57  29 2.57  30 2.57   1 2.60
  11  0.250  0.750  0.000-   1 2.55   2 2.57   3 2.57   4 2.57  17 2.57  19 2.57  21 2.57  23 2.57
                            27 2.57  28 2.57  31 2.57  32 2.57
  12  0.750  0.750  0.000-   2 2.57   3 2.57   4 2.57  18 2.57  20 2.57  22 2.57  24 2.57  27 2.57
                            28 2.57  31 2.57  32 2.57   1 2.60
  13  0.250  0.250  0.500-   5 2.57   6 2.57   7 2.57   8 2.57  17 2.57  19 2.57  21 2.57  23 2.57
                            25 2.57  26 2.57  29 2.57  30 2.57
  14  0.750  0.250  0.500-   5 2.57   6 2.57   7 2.57   8 2.57  18 2.57  20 2.57  22 2.57  24 2.57
                            25 2.57  26 2.57  29 2.57  30 2.57
  15  0.250  0.750  0.500-   5 2.57   6 2.57   7 2.57   8 2.57  17 2.57  19 2.57  21 2.57  23 2.57
                            27 2.57  28 2.57  31 2.57  32 2.57
  16  0.750  0.750  0.500-   5 2.57   6 2.57   7 2.57   8 2.57  18 2.57  20 2.57  22 2.57  24 2.57
                            27 2.57  28 2.57  31 2.57  32 2.57
  17  0.250  0.000  0.250-   1 2.55   2 2.57   5 2.57   6 2.57   9 2.57  11 2.57  13 2.57  15 2.57
                            25 2.57  26 2.57  27 2.57  28 2.57
  18  0.750  0.000  0.250-   2 2.57   5 2.57   6 2.57  10 2.57  12 2.57  14 2.57  16 2.57  25 2.57
                            26 2.57  27 2.57  28 2.57   1 2.60
  19  0.250  0.500  0.250-   3 2.57   4 2.57   7 2.57   8 2.57   9 2.57  11 2.57  13 2.57  15 2.57
                            25 2.57  26 2.57  27 2.57  28 2.57
  20  0.750  0.500  0.250-   3 2.57   4 2.57   7 2.57   8 2.57  10 2.57  12 2.57  14 2.57  16 2.57
                            25 2.57  26 2.57  27 2.57  28 2.57
  21  0.250  0.000  0.750-   1 2.55   2 2.57   5 2.57   6 2.57   9 2.57  11 2.57  13 2.57  15 2.57
                            29 2.57  30 2.57  31 2.57  32 2.57
  22  0.750  0.000  0.750-   2 2.57   5 2.57   6 2.57  10 2.57  12 2.57  14 2.57  16 2.57  29 2.57
                            30 2.57  31 2.57  32 2.57   1 2.60
  23  0.250  0.500  0.750-   3 2.57   4 2.57   7 2.57   8 2.57   9 2.57  11 2.57  13 2.57  15 2.57
                            29 2.57  30 2.57  31 2.57  32 2.57
  24  0.750  0.500  0.750-   3 2.57   4 2.57   7 2.57   8 2.57  10 2.57  12 2.57  14 2.57  16 2.57
                            29 2.57  30 2.57  31 2.57  32 2.57
  25  0.000  0.250  0.250-   3 2.57   5 2.57   7 2.57   9 2.57  10 2.57  13 2.57  14 2.57  17 2.57
                            18 2.57  19 2.57  20 2.57   1 2.57
  26  0.500  0.250  0.250-   2 2.57   4 2.57   6 2.57   8 2.57   9 2.57  10 2.57  13 2.57  14 2.57
                            17 2.57  18 2.57  19 2.57  20 2.57
  27  0.000  0.750  0.250-   3 2.57   5 2.57   7 2.57  11 2.57  12 2.57  15 2.57  16 2.57  17 2.57
                            18 2.57  19 2.57  20 2.57   1 2.57
  28  0.500  0.750  0.250-   2 2.57   4 2.57   6 2.57   8 2.57  11 2.57  12 2.57  15 2.57  16 2.57
                            17 2.57  18 2.57  19 2.57  20 2.57
  29  0.000  0.250  0.750-   3 2.57   5 2.57   7 2.57   9 2.57  10 2.57  13 2.57  14 2.57  21 2.57
                            22 2.57  23 2.57  24 2.57   1 2.57
  30  0.500  0.250  0.750-   2 2.57   4 2.57   6 2.57   8 2.57   9 2.57  10 2.57  13 2.57  14 2.57
                            21 2.57  22 2.57  23 2.57  24 2.57
  31  0.000  0.750  0.750-   3 2.57   5 2.57   7 2.57  11 2.57  12 2.57  15 2.57  16 2.57  21 2.57
                            22 2.57  23 2.57  24 2.57   1 2.57
  32  0.500  0.750  0.750-   2 2.57   4 2.57   6 2.57   8 2.57  11 2.57  12 2.57  15 2.57  16 2.57
                            21 2.57  22 2.57  23 2.57  24 2.57

  LATTYP: Found a simple cubic cell.
 ALAT       =     7.2728316235

  Lattice vectors:

 A1 = (   7.2728316235,   0.0000000000,   0.0000000000)
 A2 = (   0.0000000000,   7.2728316235,   0.0000000000)
 A3 = (   0.0000000000,   0.0000000000,   7.2728316235)
 Subroutine PRICEL returns:
 Original cell was already a primitive cell.

Analysis of symmetry for initial positions (statically):

 Routine SETGRP: Setting up the symmetry group for a
 simple cubic supercell.

 Subroutine GETGRP returns: Found  8 space group operations
 (whereof  8 operations were pure point group operations)
 out of a pool of 48 trial point group operations.

The static configuration has the point symmetry C_4v.

Analysis of symmetry for dynamics (positions and initial velocities):

 Subroutine DYNSYM returns: Found  8 space group operations
 (whereof  8 operations were pure point group operations)
 out of a pool of  8 trial space group operations
 (whereof  8 operations were pure point group operations)
 and found also     1 'primitive' translations

The dynamic configuration has the point symmetry C_4v.

 KPOINTS: Automatic mesh

Automatic generation of k-mesh.
 generate k-points for:   7   7   7

 Subroutine IBZKPT returns following result:

 Found     40 irreducible k-points:

 Following reciprocal coordinates:
            Coordinates               Weight
  0.000000  0.000000  0.000000      1.000000
  0.142857  0.000000  0.000000      2.000000
  0.285714  0.000000  0.000000      2.000000
  0.428571  0.000000  0.000000      2.000000
  0.000000  0.142857  0.000000      4.000000
  0.142857  0.142857  0.000000      8.000000
  0.285714  0.142857  0.000000      8.000000
  0.428571  0.142857  0.000000      8.000000
  0.000000  0.285714  0.000000      4.000000
  0.142857  0.285714  0.000000      8.000000
  0.285714  0.285714  0.000000      8.000000
  0.428571  0.285714  0.000000      8.000000
  0.000000  0.428571  0.000000      4.000000
  0.142857  0.428571  0.000000      8.000000
  0.285714  0.428571  0.000000      8.000000
  0.428571  0.428571  0.000000      8.000000
  0.000000  0.142857  0.142857      4.000000
  0.142857  0.142857  0.142857      8.000000
  0.285714  0.142857  0.142857      8.000000
  0.428571  0.142857  0.142857      8.000000
  0.000000  0.285714  0.142857      8.000000
  0.142857  0.285714  0.142857     16.000000
  0.285714  0.285714  0.142857     16.000000
  0.428571  0.285714  0.142857     16.000000
  0.000000  0.428571  0.142857      8.000000
  0.142857  0.428571  0.142857     16.000000
  0.285714  0.428571  0.142857     16.000000
  0.428571  0.428571  0.142857     16.000000
  0.000000  0.285714  0.285714      4.000000
  0.142857  0.285714  0.285714      8.000000
  0.285714  0.285714  0.285714      8.000000
  0.428571  0.285714  0.285714      8.000000
  0.000000  0.428571  0.285714      8.000000
  0.142857  0.428571  0.285714     16.000000
  0.285714  0.428571  0.285714     16.000000
  0.428571  0.428571  0.285714     16.000000
  0.000000  0.428571  0.428571      4.000000
  0.142857  0.428571  0.428571      8.000000
  0.285714  0.428571  0.428571      8.000000
  0.428571  0.428571  0.428571      8.000000

 Following cartesian coordinates:
            Coordinates               Weight
  0.000000  0.000000  0.000000      1.000000
  0.019643  0.000000  0.000000      2.000000
  0.039285  0.000000  0.000000      2.000000
  0.058928  0.000000  0.000000      2.000000
  0.000000  0.019643  0.000000      4.000000
  0.019643  0.019643  0.000000      8.000000
  0.039285  0.019643  0.000000      8.000000
  0.058928  0.019643  0.000000      8.000000
  0.000000  0.039285  0.000000      4.000000
  0.019643  0.039285  0.000000      8.000000
  0.039285  0.039285  0.000000      8.000000
  0.058928  0.039285  0.000000      8.000000
  0.000000  0.058928  0.000000      4.000000
  0.019643  0.058928  0.000000      8.000000
  0.039285  0.058928  0.000000      8.000000
  0.058928  0.058928  0.000000      8.000000
  0.000000  0.019643  0.019643      4.000000
  0.019643  0.019643  0.019643      8.000000
  0.039285  0.019643  0.019643      8.000000
  0.058928  0.019643  0.019643      8.000000
  0.000000  0.039285  0.019643      8.000000
  0.019643  0.039285  0.019643     16.000000
  0.039285  0.039285  0.019643     16.000000
  0.058928  0.039285  0.019643     16.000000
  0.000000  0.058928  0.019643      8.000000
  0.019643  0.058928  0.019643     16.000000
  0.039285  0.058928  0.019643     16.000000
  0.058928  0.058928  0.019643     16.000000
  0.000000  0.039285  0.039285      4.000000
  0.019643  0.039285  0.039285      8.000000
  0.039285  0.039285  0.039285      8.000000
  0.058928  0.039285  0.039285      8.000000
  0.000000  0.058928  0.039285      8.000000
  0.019643  0.058928  0.039285     16.000000
  0.039285  0.058928  0.039285     16.000000
  0.058928  0.058928  0.039285     16.000000
  0.000000  0.058928  0.058928      4.000000
  0.019643  0.058928  0.058928      8.000000
  0.039285  0.058928  0.058928      8.000000
  0.058928  0.058928  0.058928      8.000000

 I would recommend the setting:
   dimension x,y,z NGX =    53 NGY =   53 NGZ =   53
 SYSTEM =  unknown system
 POSCAR =  Cu

 Startparameter for this run:
   NWRITE =      2    write-flag & timer
[...]
 total energy-change (2. order) : 0.1786248E-07  (-0.2005573E-10)
 number of electron  351.9999998 magnetization
 augmentation part   230.1607688 magnetization

 Broyden mixing:
  rms(total) = 0.35453E-05    rms(broyden)= 0.22658E-05
  rms(prec ) = 0.32111E-05
  weight for this iteration     100.00
  WARNING: grid for Broyden might be to small

 eigenvalues of (default mixing * dielectric matrix)
  average eigenvalue GAMMA=   1.1690
  2.6567  2.6567  2.5769  2.5769  1.9186  1.3685  1.3685  1.0102  0.9845  0.9845
  0.8420  0.6922  0.5943  0.3779  0.3419  0.3374  0.3116  0.3168  0.2950

[...]

----------------------------------------- Iteration    1(  25)  ---------------------------------------

 eigenvalue-minimisations  :  9568
 total energy-change (2. order) :-0.7377821E-08  (-0.7788330E-11)
 number of electron  351.9999998 magnetization
 augmentation part   230.1607688 magnetization

 Free energy of the ion-electron system (eV)
  alpha Z        PSCENC =      3400.89143748
  Ewald energy   TEWEN  =    -35148.71165539
  -1/2 Hartree   DENC   =     -9845.65567097
  -V(xc)+E(xc)   XCENC  =      1368.72894407
  PAW double counting   =     35061.85835919   -39692.33306795
  entropy T*S    EENTRO =        -0.00104030
  eigenvalues    EBANDS =       224.92983611
  atomic energy  EATOM  =     44511.25856501
  free energy    TOTEN  =      -119.03429276 eV

  energy without entropy =     -119.03325246  energy(sigma->0) =     -119.03377261

 average (electrostatic) potential at core
  the test charge radii are     1.0053
  (the norm of the test charge is              1.0000)
       1 -40.0425       2 -40.0419       3 -40.0418       4 -40.0418       5 -40.0418
       6 -40.0418       7 -40.0418       8 -40.0419       9 -40.0470      10 -40.0369
      11 -40.0470      12 -40.0369      13 -40.0420      14 -40.0417      15 -40.0420
      16 -40.0417      17 -40.0470      18 -40.0369      19 -40.0420      20 -40.0417
      21 -40.0470      22 -40.0369      23 -40.0420      24 -40.0417      25 -40.0418
      26 -40.0419      27 -40.0418      28 -40.0419      29 -40.0418      30 -40.0419
      31 -40.0418      32 -40.0419

 E-fermi :   3.6391     XC(G=0): -12.6972     alpha+bet : -9.4615
   add alpha+bet to get absolut eigen values

 k-point   1 :       0.0000    0.0000    0.0000
  band No.  band energies     occupation
      1      -5.5735      2.00000
      2      -2.8536      2.00000
      3      -2.8418      2.00000
      4      -2.8418      2.00000
      5      -2.8418      2.00000
      6      -2.8418      2.00000
      7      -2.8303      2.00000
      8      -1.3533      2.00000
      9      -1.3533      2.00000
     10      -1.3532      2.00000
     11      -1.3532      2.00000
     12      -1.1518      2.00000
     13      -1.1514      2.00000
     14      -1.1513      2.00000
     15      -0.9890      2.00000
     16      -0.9812      2.00000
     17      -0.9812      2.00000
     18      -0.9770      2.00000
     19      -0.9763      2.00000
     20      -0.9762      2.00000
     21      -0.9761      2.00000
     22      -0.9761      2.00000
     23      -0.9752      2.00000
     24      -0.9711      2.00000
     25      -0.9711      2.00000
     26      -0.9629      2.00000
     27      -0.7107      2.00000
     28      -0.7105      2.00000
     29      -0.7105      2.00000
     30      -0.4359      2.00000
     31      -0.4286      2.00000
     32      -0.4286      2.00000
     33      -0.4286      2.00000
     34      -0.4285      2.00000
     35      -0.4218      2.00000
     36      -0.0583      2.00000
     37      -0.0518      2.00000
     38      -0.0518      2.00000
     39      -0.0514      2.00000
     40      -0.0514      2.00000
     41      -0.0457      2.00000
     42       0.1416      2.00000
     43       0.1465      2.00000
     44       0.1465      2.00000
     45       0.1553      2.00000
     46       0.1553      2.00000
     47       0.1555      2.00000
     48       0.1555      2.00000
     49       0.1558      2.00000
     50       0.1561      2.00000
     51       0.1561      2.00000
     52       0.1568      2.00000
     53       0.1577      2.00000
     54       0.1577      2.00000
     55       0.1583      2.00000
     56       0.1583      2.00000
     57       0.1588      2.00000
     58       0.1589      2.00000
     59       0.1593      2.00000
     60       0.1593      2.00000
[...]
    202       9.8025      0.00000
    203      10.6357      0.00000
    204      10.6362      0.00000
    205      10.6362      0.00000
    206      11.8632      0.00000
    207      11.8739      0.00000
    208      11.8739      0.00000
    209      11.8741      0.00000
    210      11.8741      0.00000
    211      11.8836      0.00000
    212      12.3188      0.00000
    213      12.3194      0.00000
    214      12.3201      0.00000
    215      12.3202      0.00000
    216      12.3209      0.00000

[...]

 k-point  40 :       0.4286    0.4286    0.4286
  band No.  band energies     occupation
      1      -3.9944      2.00000
      2      -3.6224      2.00000
      3      -3.6167      2.00000
      4      -3.6112      2.00000
      5      -3.2654      2.00000
      6      -3.2600      2.00000
      7      -3.2546      2.00000
      8      -2.9323      2.00000
      9      -0.8767      2.00000
     10      -0.8725      2.00000
     11      -0.8687      2.00000
     12      -0.7870      2.00000
     13      -0.7860      2.00000
     14      -0.7823      2.00000
     15      -0.7821      2.00000
     16      -0.7793      2.00000
     17      -0.7781      2.00000
     18      -0.7718      2.00000
     19      -0.7713      2.00000
     20      -0.7701      2.00000
     21      -0.7492      2.00000
     22      -0.7492      2.00000
     23      -0.7481      2.00000
     24      -0.6505      2.00000
     25      -0.6484      2.00000
     26      -0.6456      2.00000
     27      -0.6455      2.00000
     28      -0.6428      2.00000
     29      -0.6413      2.00000
     30      -0.6156      2.00000
     31      -0.6120      2.00000
     32      -0.6081      2.00000
     33      -0.3106      2.00000
     34      -0.3092      2.00000
     35      -0.3081      2.00000
     36      -0.2180      2.00000
     37      -0.2144      2.00000
     38      -0.2131      2.00000
     39      -0.2127      2.00000
     40      -0.2112      2.00000
     41      -0.2092      2.00000
     42      -0.2077      2.00000
     43      -0.2062      2.00000
     44      -0.2037      2.00000
     45      -0.1176      2.00000
     46      -0.1150      2.00000
     47      -0.1135      2.00000
     48      -0.1005      2.00000
     49      -0.0983      2.00000
     50      -0.0966      2.00000
     51      -0.0965      2.00000
     52      -0.0950      2.00000
     53      -0.0918      2.00000
     54       0.0174      2.00000
     55       0.0179      2.00000
     56       0.0187      2.00000
     57       0.3794      2.00000
     58       0.3833      2.00000
     59       0.3848      2.00000
     60       0.3882      2.00000
[...]
    202      10.0852      0.00000
    203      10.0909      0.00000
    204      10.0932      0.00000
    205      10.5395      0.00000
    206      10.5412      0.00000
    207      10.5466      0.00000
    208      10.5467      0.00000
    209      10.5525      0.00000
    210      10.5541      0.00000
    211      11.1861      0.00000
    212      11.1880      0.00000
    213      11.1897      0.00000
    214      11.6559      0.00000
    215      11.6583      0.00000
    216      11.6605      0.00000

 soft charge-density along one line, spin component           1
         0         1         2         3         4         5         6         7         8         9
 total charge-density along one line

------------------------ aborting loop because EDIFF is reached ----------------------------------------

  FREE ENERGIE OF THE ION-ELECTRON SYSTEM (eV)
  free  energy   TOTEN  =      -119.034293 eV

  energy  without entropy=     -119.033252  energy(sigma->0) =     -119.033773

  FORCE on cell =-STRESS in cart. coord.  units (eV/reduce length):
  Direction    X        Y        Z        XY       YZ       ZX
  Alpha Z   3400.89   3400.89   3400.89
  Ewald   -11716.77 -11716.05 -11716.05     -0.00     -0.00     -0.00
  Hartree   3281.54   3282.06   3282.06     -0.00     -0.00     -0.00
  E(xc)    -2004.38  -2004.38  -2004.38     -0.00     -0.00     -0.00
  Local     3887.39   3886.15   3886.15     -0.00      0.00      0.00
  n-local  -1171.76  -1174.69  -1168.82      1.84      1.01      0.20
  augment   1809.18   1809.18   1809.18     -0.00     -0.00     -0.00
  Kinetic   2513.87   2511.44   2516.30      0.22     -1.10     -2.41
  Total       -0.03     -0.02     -0.02      0.00      0.00      0.00
  in kB       -0.11     -0.10     -0.10      0.00      0.00      0.00

 VOLUME and BASIS-vectors are now :
  energy-cutoff  :      500.00
  volume of cell :      384.69
      direct lattice vectors                 reciprocal lattice vectors
     7.272831623  0.000000000  0.000000000     0.137498027  0.000000000  0.000000000
     0.000000000  7.272831623  0.000000000     0.000000000  0.137498027  0.000000000
     0.000000000  0.000000000  7.272831623     0.000000000  0.000000000  0.137498027

  length of vectors
     7.272831623  7.272831623  7.272831623     0.137498027  0.137498027  0.137498027

 FORCES acting on ions
    electron-ion (+dipol)            ewald-force                    non-local-force                 convergence-correction
   0.212E+02 -.227E-12 0.573E-05   -.214E+02 0.185E-12 -.115E-13   -.880E-01 0.000E+00 0.000E+00   -.123E-04 0.593E-13 -.619E-13
   -.557E+01 -.219E-12 -.582E-05   0.565E+01 0.213E-13 0.163E-12   -.673E-01 0.000E+00 -.203E-19   0.606E-05 0.795E-13 -.123E-12
   0.177E+01 0.955E-12 0.324E-09   -.179E+01 -.444E-14 0.124E-12   0.160E-01 0.542E-19 -.169E-20   -.599E-06 0.366E-13 -.955E-13
   -.143E+01 -.465E-11 0.327E-09   0.140E+01 0.924E-13 0.163E-12   0.258E-01 0.000E+00 -.271E-19   0.245E-05 -.579E-14 -.164E-12
   0.177E+01 -.226E-12 0.290E-07   -.179E+01 0.400E-13 0.462E-13   0.160E-01 0.136E-19 -.203E-19   0.201E-05 0.561E-13 -.785E-14
   -.143E+01 -.236E-12 0.290E-07   0.140E+01 -.355E-13 0.711E-14   0.258E-01 0.813E-19 0.000E+00   0.203E-05 0.810E-13 -.754E-13
   0.743E+00 0.956E-12 -.753E-10   -.738E+00 0.133E-13 -.178E-13   -.487E-02 0.000E+00 0.000E+00   0.733E-05 0.350E-13 -.489E-13
   -.694E+00 -.450E-11 -.825E-10   0.690E+00 0.924E-13 -.107E-12   0.295E-02 0.271E-19 -.339E-20   -.719E-05 -.338E-14 -.143E-12
   -.267E+01 -.525E+01 0.731E-09   0.268E+01 0.528E+01 0.711E-14   0.185E-01 0.428E-02 0.000E+00   0.110E-05 0.987E-05 -.116E-12
   -.275E+01 0.508E+01 0.746E-09   0.275E+01 -.510E+01 0.107E-13   0.206E-01 -.639E-02 -.813E-19   -.342E-06 0.254E-05 -.897E-13
   -.267E+01 0.525E+01 0.731E-09   0.268E+01 -.528E+01 0.782E-13   0.185E-01 -.428E-02 0.000E+00   0.110E-05 -.987E-05 -.123E-12
   -.275E+01 -.508E+01 0.747E-09   0.275E+01 0.510E+01 0.192E-12   0.206E-01 0.639E-02 -.271E-19   -.342E-06 -.254E-05 -.127E-12
   -.603E-01 -.428E+00 -.189E-09   0.696E-01 0.429E+00 0.995E-13   -.823E-02 -.755E-03 -.678E-20   -.116E-05 0.878E-05 -.121E-12
   -.946E-01 0.425E+00 -.192E-09   0.104E+00 -.427E+00 -.107E-13   -.824E-02 0.734E-03 0.508E-20   -.353E-07 0.657E-06 -.919E-13
   -.603E-01 0.428E+00 -.188E-09   0.696E-01 -.429E+00 -.782E-13   -.823E-02 0.755E-03 0.678E-20   -.116E-05 -.878E-05 -.407E-13
   -.946E-01 -.425E+00 -.193E-09   0.104E+00 0.427E+00 -.782E-13   -.824E-02 -.734E-03 -.136E-19   -.353E-07 -.657E-06 -.408E-13
   -.267E+01 -.247E-12 -.525E+01   0.268E+01 -.453E-13 0.528E+01   0.185E-01 0.000E+00 0.428E-02   0.648E-06 0.111E-12 0.102E-04
   -.275E+01 -.266E-12 0.508E+01   0.275E+01 -.109E-12 -.510E+01   0.206E-01 0.000E+00 -.639E-02   -.783E-06 0.674E-13 0.221E-05
   -.603E-01 0.878E-12 -.428E+00   0.696E-01 -.790E-13 0.429E+00   -.823E-02 -.542E-19 -.755E-03   -.105E-05 -.278E-14 0.912E-05
   -.946E-01 0.387E-11 0.425E+00   0.104E+00 -.293E-13 -.427E+00   -.824E-02 -.542E-19 0.734E-03   0.788E-07 -.117E-14 0.319E-06
   -.267E+01 -.206E-12 0.525E+01   0.268E+01 -.364E-13 -.528E+01   0.185E-01 0.000E+00 -.428E-02   0.648E-06 0.794E-13 -.102E-04
   -.275E+01 -.200E-12 -.508E+01   0.275E+01 -.150E-12 0.510E+01   0.206E-01 0.542E-19 0.639E-02   -.783E-06 0.185E-13 -.221E-05
   -.603E-01 0.119E-11 0.428E+00   0.696E-01 -.773E-13 -.429E+00   -.823E-02 0.000E+00 0.755E-03   -.105E-05 0.503E-13 -.912E-05
   -.946E-01 0.340E-11 -.425E+00   0.104E+00 -.204E-13 0.427E+00   -.824E-02 -.108E-18 -.734E-03   0.788E-07 0.459E-13 -.319E-06
   0.336E+01 0.529E-01 0.529E-01   -.337E+01 -.530E-01 -.530E-01   0.122E-01 -.120E-03 -.120E-03   -.575E-07 0.606E-05 0.605E-05
   -.188E+01 -.156E-01 -.156E-01   0.190E+01 0.159E-01 0.159E-01   -.163E-01 -.281E-03 -.281E-03   0.508E-06 0.478E-05 0.479E-05
   0.336E+01 -.529E-01 0.529E-01   -.337E+01 0.530E-01 -.530E-01   0.122E-01 0.120E-03 -.120E-03   -.575E-07 -.606E-05 0.605E-05
   -.188E+01 0.156E-01 -.156E-01   0.190E+01 -.159E-01 0.159E-01   -.163E-01 0.281E-03 -.281E-03   0.508E-06 -.478E-05 0.479E-05
   0.336E+01 0.529E-01 -.529E-01   -.337E+01 -.530E-01 0.530E-01   0.122E-01 -.120E-03 0.120E-03   -.575E-07 0.606E-05 -.605E-05
   -.188E+01 -.156E-01 0.156E-01   0.190E+01 0.159E-01 -.159E-01   -.163E-01 -.281E-03 0.281E-03   0.508E-06 0.478E-05 -.479E-05
   0.336E+01 -.529E-01 -.529E-01   -.337E+01 0.530E-01 0.530E-01   0.122E-01 0.120E-03 0.120E-03   -.575E-07 -.606E-05 -.605E-05
   -.188E+01 0.156E-01 0.156E-01   0.190E+01 -.159E-01 -.159E-01   -.163E-01 0.281E-03 0.281E-03   0.508E-06 -.478E-05 -.479E-05
   -.620E-04 0.358E-10 0.478E-08   0.879E-13 -.310E-13 -.132E-12   0.849E-04 0.146E-17 0.228E-17   -.151E-05 0.711E-12 -.312E-11

 POSITION                                       TOTAL-FORCE (eV/Angst)
      0.03636      0.00000      0.00000        -0.237954      0.000000     -0.000000
      3.63642      0.00000      0.00000         0.004169      0.000000      0.000000
      0.00000      3.63642      0.00000        -0.001556      0.000000     -0.000000
      3.63642      3.63642      0.00000         0.000195      0.000000     -0.000000
      0.00000      0.00000      3.63642        -0.001556      0.000000     -0.000000
      3.63642      0.00000      3.63642         0.000195      0.000000      0.000000
      0.00000      3.63642      3.63642         0.000102      0.000000     -0.000000
      3.63642      3.63642      3.63642        -0.001088      0.000000     -0.000000
      1.81821      1.81821      0.00000         0.030556      0.035494      0.000000
      5.45462      1.81821      0.00000         0.027240     -0.030832      0.000000
      1.81821      5.45462      0.00000         0.030556     -0.035494     -0.000000
      5.45462      5.45462      0.00000         0.027240      0.030832      0.000000
      1.81821      1.81821      3.63642         0.001024      0.000721     -0.000000
      5.45462      1.81821      3.63642         0.001014     -0.000734      0.000000
      1.81821      5.45462      3.63642         0.001024     -0.000721      0.000000
      5.45462      5.45462      3.63642         0.001014      0.000734     -0.000000
      1.81821      0.00000      1.81821         0.030556      0.000000      0.035494
      5.45462      0.00000      1.81821         0.027240      0.000000     -0.030832
      1.81821      3.63642      1.81821         0.001024      0.000000      0.000721
      5.45462      3.63642      1.81821         0.001014      0.000000     -0.000734
      1.81821      0.00000      5.45462         0.030556     -0.000000     -0.035494
      5.45462      0.00000      5.45462         0.027240      0.000000      0.030832
      1.81821      3.63642      5.45462         0.001024      0.000000     -0.000721
      5.45462      3.63642      5.45462         0.001014     -0.000000      0.000734
      0.00000      1.81821      1.81821        -0.002777     -0.000237     -0.000237
      3.63642      1.81821      1.81821         0.002316      0.000023      0.000023
      0.00000      5.45462      1.81821        -0.002777      0.000237     -0.000237
      3.63642      5.45462      1.81821         0.002316     -0.000023      0.000023
      0.00000      1.81821      5.45462        -0.002777     -0.000237      0.000237
      3.63642      1.81821      5.45462         0.002316      0.000023     -0.000023
      0.00000      5.45462      5.45462        -0.002777      0.000237      0.000237
      3.63642      5.45462      5.45462         0.002316     -0.000023     -0.000023
    total drift:                                0.000021      0.000000      0.000000

 mean value of Nose-termostat <S>:     1.000 mean value of <T> :     0.000
 mean temperature <T/S>/<1/S>  :     0.000